9
Properties=species:S:1:pos:R:3:forces:R:3:charge:R:1 formula=N9 topology=bicyclic-3-3 n_edges=10 n_rings=2 ff_energy=502.6252 mace_energy_eV=-13410.70965 delta_E_eV_atom=0.28382774043257086 sg=P1 energy=-708.5302374184323 free_energy=-708.5302374184323 dipole="-0.06492507454032877 0.09474302934718346 0.02601024288136437" pbc="F F F"
N       15.96893506      12.29528218      16.96184069      -0.00003549       0.00004704      -0.00003621      -0.18308119
N       14.99768877      13.36666531      12.15965348      -0.00001759      -0.00003230      -0.00005044      -0.01443259
N       14.86038204      16.80642995      14.93016008       0.00013135       0.00034985       0.00006585       0.27140222
N       14.50263863      14.53257684      14.91030469      -0.00002906      -0.00004271      -0.00002224      -0.07847765
N       15.44323423      13.22065320      13.15645762       0.00001679       0.00001519       0.00003786      -0.02142766
N       15.12163020      17.89951568      15.05415494      -0.00000779      -0.00008297       0.00003042      -0.17499036
N       15.56293146      13.16123516      16.36255043       0.00012948      -0.00018242       0.00010734       0.29364892
N       14.38757463      15.75909477      14.57061982      -0.00015715      -0.00012174      -0.00016298      -0.01880964
N       15.30958555      14.24628675      15.92561949      -0.00003054       0.00005005       0.00003040      -0.07383204
