8
Properties=species:S:1:pos:R:3:forces:R:3:charge:R:1 formula=N8 topology=ring-6-substituted n_edges=8 n_rings=1 ff_energy=19.459 mace_energy_eV=-11920.142096 delta_E_eV_atom=0.34491569269926003 sg=P1 energy=-629.1546967603906 free_energy=-629.1546967603906 dipole="0.009406587991332174 0.0069870686110280605 0.01120341329740036" pbc="F F F"
N       15.51267480      16.03351088      16.61504549       0.00025321      -0.00038861      -0.00017394      -0.01793544
N       15.75867148      13.12171452      15.24436171      -0.00018519      -0.00023579       0.00024206      -0.03995215
N       15.05188604      16.95274274      17.00039425      -0.00025032       0.00038961       0.00018355       0.01680172
N       15.75236447      14.72984243      13.67646075      -0.00019989       0.00013995      -0.00015373      -0.04708207
N       14.54446895      15.09242266      14.19880052      -0.00007661      -0.00014369       0.00006942      -0.05013960
N       13.93577502      14.08426141      14.63004690       0.00018269       0.00007429      -0.00007246       0.08811061
N       14.43132903      12.98228111      14.96247057      -0.00009380       0.00008533      -0.00000558      -0.04667243
N       16.30549027      13.87628459      14.40824803       0.00036991       0.00007891      -0.00008932       0.09686936
