8
Properties=species:S:1:pos:R:3:forces:R:3:charge:R:1 formula=N8 topology=bicyclic-3-4-5 n_edges=10 n_rings=3 ff_energy=333.6472 mace_energy_eV=-11917.534812 delta_E_eV_atom=0.670826226569261 sg=P1 energy=-629.3803066842102 free_energy=-629.3803066842102 dipole="0.5910630824958119 0.06806280131097925 0.13169292810274166" pbc="F F F"
N       13.96645499      15.46454777      15.79636666      -0.00005976      -0.00001726       0.00002321      -0.09923609
N       16.31819642      15.58939361      15.62431309       0.00017738       0.00008320       0.00009471      -0.04704758
N       14.88158958      14.29083661      14.21466089      -0.00023198       0.00008794      -0.00007905      -0.12869854
N       13.61954160      14.16248309      14.16337487       0.00001312       0.00000095      -0.00000606      -0.04572174
N       15.09991823      15.10641059      15.23381001       0.00000565      -0.00001632       0.00001984       0.25376790
N       17.39346951      15.00142814      14.88224411      -0.00006339      -0.00010730      -0.00030195       0.06635571
N       13.06661520      14.87151793      15.12449959       0.00005505      -0.00009478      -0.00008692      -0.04366556
N       17.26082496      14.54658231      15.98960515       0.00010394       0.00006356       0.00033622       0.04424590
