9
Properties=species:S:1:pos:R:3:forces:R:3:charge:R:1 formula=N9 topology=branched-tree n_edges=8 n_rings=0 ff_energy=21.5458 mace_energy_eV=-13411.533213 delta_E_eV_atom=0.19232074649971764 sg=P1 energy=-706.9363729355358 free_energy=-706.9363729355358 dipole="-0.10142179440935677 -0.12484836756216988 0.07027578970886487" pbc="F F F"
N       14.53383031      13.42185976      14.08360813      -0.00002583      -0.00034382      -0.00011707      -0.05337246
N       16.34725373      13.99991898      12.79731159      -0.00007390       0.00006551       0.00008009      -0.18524132
N       16.87696038      15.00087152      17.15788946      -0.00034164      -0.00005564      -0.00035528       0.01681123
N       12.85644322      13.76669104      15.63506115       0.00001577       0.00001050       0.00000448      -0.17271585
N       13.73133061      13.81888967      14.91445730      -0.00028987       0.00015209       0.00027482       0.27630749
N       15.01821626      16.12041135      14.48110577       0.00006221       0.00004843      -0.00002089      -0.05716923
N       16.19393255      14.54000451      16.43208371       0.00034987       0.00004864       0.00035249      -0.01792956
N       15.47842388      14.07797844      13.54313141       0.00035378       0.00013087      -0.00022992       0.21239061
N       15.60622592      17.03146266      14.26550341      -0.00005040      -0.00005659       0.00001128      -0.01908091
