8
Properties=species:S:1:pos:R:3:forces:R:3:charge:R:1 N8=T charge=0 mult=1 PG=Oh |=T B3LYP/aug-cc-pVDZ=T src:=T B=T p.42=T (B3LYP/aug-cc-pVDZ)=T -=T cubane=T energy=-623.3753760939429 free_energy=-623.3753760939429 dipole="-1.0868837380585484e-15 2.5850207824095206e-15 1.2337599188772712e-15" pbc="F F F"
N       -0.71116561      -0.71116561      -0.71116561       0.00011385       0.00011385       0.00011385      -0.00000000
N       -0.71116561      -0.71116561       0.71116561       0.00011385       0.00011385      -0.00011385       0.00000000
N       -0.71116561       0.71116561      -0.71116561       0.00011385      -0.00011385       0.00011385      -0.00000000
N       -0.71116561       0.71116561       0.71116561       0.00011385      -0.00011385      -0.00011385       0.00000000
N        0.71116561      -0.71116561      -0.71116561      -0.00011385       0.00011385       0.00011385       0.00000000
N        0.71116561      -0.71116561       0.71116561      -0.00011385       0.00011385      -0.00011385      -0.00000000
N        0.71116561       0.71116561      -0.71116561      -0.00011385      -0.00011385       0.00011385       0.00000000
N        0.71116561       0.71116561       0.71116561      -0.00011385      -0.00011385      -0.00011385      -0.00000000
