8
Properties=species:S:1:pos:R:3:forces:R:3:charge:R:1 formula=N8 topology=bicyclic-3-5-6 n_edges=10 n_rings=3 ff_energy=323.283 mace_energy_eV=-11916.604721 delta_E_eV_atom=0.7870875636658639 sg=P1 energy=-625.8492822538491 free_energy=-625.8492822538491 dipole="0.06853240607835423 0.052886143611811064 -0.1136951561664419" pbc="F F F"
N       14.20413937      15.06969796      16.43588148       0.00013688      -0.00033344       0.00001861      -0.00450308
N       16.09877057      15.79865913      13.71690604       0.00008997      -0.00011909       0.00008309       0.04021873
N       16.11478631      14.81982805      14.55954860      -0.00000849       0.00028097      -0.00014057       0.02188808
N       13.92690772      14.70967238      14.25284013      -0.00025881      -0.00020456      -0.00022796      -0.01612114
N       15.51200423      16.14701191      14.81361885      -0.00002571      -0.00006661       0.00001566       0.02188419
N       14.74268715      13.81971573      14.65276950       0.00017449      -0.00022975       0.00004076      -0.02943429
N       13.87750440      15.72475420      15.01746195       0.00006711       0.00042125       0.00011089      -0.02943494
N       14.68064121      14.02050410      16.23502819      -0.00017543       0.00025123       0.00009952      -0.00449756
