8
Properties=species:S:1:pos:R:3:forces:R:3:charge:R:1 formula=N8 topology=bicyclic-3-3-5 n_edges=10 n_rings=3 ff_energy=463.4436 mace_energy_eV=-39575.100782 delta_E_eV_atom=-3456.5249200879284 sg=P1 energy=-631.8654177770819 free_energy=-631.8654177770819 dipole="-0.3961850903861537 -0.4571807327476631 -0.021117457074671036" pbc="F F F"
N       13.44804561      13.49610512      15.05401200      -0.00005475      -0.00002258      -0.00018098       0.33000956
N       15.96605587      16.78731312      13.90325896      -0.00010931      -0.00000305       0.00022285      -0.05544456
N       15.31735723      15.55119930      15.49408039      -0.00005321       0.00004953       0.00018925      -0.14908736
N       13.84904993      14.22447466      14.18991369      -0.00005943      -0.00004276       0.00040487      -0.11568697
N       15.13825174      15.97979025      13.36659727       0.00003617      -0.00001180      -0.00020170      -0.11426133
N       16.07280633      16.52771316      15.18518402       0.00019553       0.00008077      -0.00003704      -0.04998356
N       14.72963401      15.20603940      14.35238687      -0.00000170      -0.00006887      -0.00036590       0.28476777
N       12.94294853      12.71824518      15.67701972       0.00004670       0.00001876      -0.00003135      -0.13031354
