8
Properties=species:S:1:pos:R:3:forces:R:3:charge:R:1 formula=N8 topology=ring-5-substituted n_edges=8 n_rings=1 ff_energy=36.0335 mace_energy_eV=-11921.618841 delta_E_eV_atom=0.1603225275184741 sg=P1 energy=-631.7690167920128 free_energy=-631.7690167920128 dipole="-0.2721821080967015 0.4275018721259248 0.1543376510680731" pbc="F F F"
N       13.77832315      15.88655793      16.08171715      -0.00014461       0.00002413       0.00018046       0.32486971
N       15.61539112      12.67390500      14.06535987      -0.00019202       0.00008151      -0.00009778      -0.05014021
N       15.16242538      14.48899969      14.93039225       0.00000601      -0.00016474       0.00006533       0.27176236
N       14.54597331      15.63832996      15.19444973       0.00025647      -0.00001145      -0.00034232      -0.12067811
N       14.70335863      13.55414608      14.10778209      -0.00006373      -0.00012335      -0.00010986      -0.11756832
N       16.62218536      13.03710136      14.83489316       0.00008426       0.00018275       0.00012019      -0.05013982
N       13.06161629      16.35524929      16.79825372      -0.00010013       0.00005344       0.00011659      -0.14053528
N       16.36586983      14.15388926      15.37850541       0.00015375      -0.00004229       0.00006737      -0.11757032
