4
Properties=species:S:1:pos:R:3:forces:R:3:charge:R:1 formula=N4 topology=ring-3-subst integrity=OK energy_eV=-5958.095874 delta_E_eV_atom=0.9655 sg=P1 energy=-311.35668216134644 free_energy=-311.35668216134644 dipole="-0.06604347617765012 0.18543809082716106 -0.0934256122513845" pbc="F F F"
N        0.10006695      -0.27973979       0.14104392      -0.00021491       0.00009347      -0.00038811       0.37766987
N       -0.87873466       0.54866553      -0.39269601       0.00026743      -0.00013728       0.00018143      -0.05780635
N        0.44836537      -1.25523277       0.63267680       0.00000156       0.00001471       0.00015362      -0.26219482
N        0.33030235       0.98630704      -0.38102470      -0.00005408       0.00002910       0.00005307      -0.05766870
