9
 energy: -26.340987250010 gnorm: 0.000825390602 xtb: 6.6.1 (8d0f1dd)
N            1.43283080038057        0.20207063522655        0.28101158368752
N            0.57188008517745        1.24810399004739       -0.27640085226353
N           -0.63735599965148        1.04777227863789       -0.12163380477451
N           -1.17419475710351       -0.08584203916715        0.28624712862494
N           -0.38643009694997       -1.11752743908633        0.00985024905660
N            0.84100018308028       -1.04456475831322       -0.13088651239559
N            2.72413646578520        0.30128512790725       -0.19331493162868
N            3.63784009526911        0.83041302531747        0.35175984546366
N            4.67282064399524        1.25126425043119        0.58304270000504
