9
Properties=species:S:1:pos:R:3:forces:R:3:charge:R:1 formula=N9 topology=ring-5-substituted n_edges=9 n_rings=1 ff_energy=37.6919 mace_energy_eV=-13410.52416 delta_E_eV_atom=0.3044376785858276 sg=P1 energy=-709.8467423452571 free_energy=-709.8467423452571 dipole="-0.3874865899775325 -0.24751783323937285 -0.06921896379449796" pbc="F F F"
N       13.39735484      13.66307908      14.38137495       0.00004709      -0.00003045      -0.00009324       0.29564054
N       15.99510245      15.73072679      15.00348678      -0.00003686      -0.00015010       0.00007411       0.28477695
N       17.86339736      16.18567155      15.74871912       0.00005623       0.00017076      -0.00002893      -0.03278194
N       14.71706407      15.39973341      14.96433468      -0.00006241      -0.00008480       0.00038815      -0.13105408
N       16.63690316      16.39266753      14.04718911      -0.00005493      -0.00020644      -0.00000825      -0.11848407
N       17.77917302      16.65484442      14.53877045      -0.00001282      -0.00003679      -0.00010979      -0.03277640
N       16.77766534      15.60842327      16.06987456       0.00003243       0.00020771       0.00010108      -0.11845512
N       14.45461105      14.20480792      14.51782882       0.00028051       0.00004935      -0.00027300      -0.00065825
N       12.57313342      12.92420035      14.15187707      -0.00024924       0.00008075      -0.00005013      -0.14620763
