4
Properties=species:S:1:pos:R:3:initial_magmoms:R:1:forces:R:3:charge:R:1 N4=T charge=0 mult=3 PG=C2h |=T CCSD(T)/aug-cc-pVDZ=T src:=T B=T p.22=T (CCSD(T)/aug-cc-pVDZ,=T 3Bu,=T "linear E)"=T energy=-313.11427402393696 free_energy=-313.11427402393696 dipole="-6.97978636743029e-05 -4.045331898185388e-05 -9.55513378073633e-16" pbc="F F F"
N       -0.02746842      -0.14909323       0.00000000       2.00000000       0.00017165       0.00005631      -0.00000000      -0.19326293
N        1.02645439       0.34618468      -0.00000000       0.00000000      -0.00031637      -0.00014716       0.00000000       0.19328783
N        1.97213493       1.05988083       0.00000000       0.00000000       0.00006914       0.00005462      -0.00000000       0.19328380
N        3.02605710       1.55516171       0.00000000       0.00000000       0.00007558       0.00003623       0.00000000      -0.19330870
