10
Properties=species:S:1:pos:R:3:forces:R:3:charge:R:1 formula=N10 topology=bicyclic-3-4-6 n_edges=12 n_rings=3 ff_energy=375.1776 mace_energy_eV=-14894.664802 delta_E_eV_atom=0.8961975383017489 sg=P1 energy=-785.743504649355 free_energy=-785.743504649355 dipole="0.018073997055383314 0.012569878462141103 0.03967118430277333" pbc="F F F"
N       14.62506017      14.72636771      13.69976007       0.00000704       0.00001313       0.00016028      -0.24401189
N       12.08440997      13.51333070      15.92846375      -0.00003241       0.00012759      -0.00004283       0.02887630
N       11.68154046      14.64381712      15.75468349       0.00017067      -0.00012243      -0.00006617       0.02893705
N       15.43580867      15.16330227      14.66150123      -0.00004939       0.00004789      -0.00011035       0.27359579
N       17.33751718      15.97513066      15.53497613      -0.00010542      -0.00016471      -0.00027417       0.31891413
N       13.74190358      14.56446226      14.69278849      -0.00001228       0.00009416      -0.00007263       0.21743738
N       14.56708956      15.00849682      15.66714911       0.00002643      -0.00011517       0.00003859      -0.30708000
N       18.12138115      16.36223626      16.23662862      -0.00016313       0.00008479      -0.00005741      -0.15740715
N       16.68328776      15.59923756      14.60539542       0.00018937       0.00002500       0.00034001      -0.11734563
N       12.46875243      14.10811647      14.67560531      -0.00003088       0.00000975       0.00008469      -0.04191598
