9
Properties=species:S:1:pos:R:3:forces:R:3:charge:R:1 formula=N9 topology=bicyclic-3-4 n_edges=10 n_rings=2 ff_energy=374.5401 mace_energy_eV=-13410.612512 delta_E_eV_atom=0.2946208418557035 sg=P1 energy=-708.5292042691544 free_energy=-708.5292042691544 dipole="0.009303259259450986 0.008948650937492073 -0.03777157948905617" pbc="F F F"
N       15.62222049      14.43979034      15.39750363      -0.00000654      -0.00002497       0.00006668      -0.10253572
N       16.75551761      17.53694818      16.12261849      -0.00010814      -0.00021980      -0.00006132      -0.18687962
N       13.44615673      16.37756053      14.02986709      -0.00014728      -0.00040504      -0.00013208      -0.00465493
N       15.90740920      15.67366184      15.05996879      -0.00003944      -0.00003213      -0.00005514      -0.03729287
N       14.78475407      12.58832140      14.40535678      -0.00000714      -0.00016084      -0.00005236       0.28007733
N       15.13871803      13.72927037      14.40801578      -0.00000691       0.00001328      -0.00002546      -0.03728430
N       16.35223744      16.55330484      15.73481527       0.00017188       0.00033427       0.00010173       0.28007256
N       14.39464648      11.56503911      14.12024949      -0.00000085       0.00009317       0.00002716      -0.18688064
N       13.06047907      15.40175058      13.70266595       0.00014443       0.00040205       0.00013080      -0.00462181
