6
Properties=species:S:1:pos:R:3:forces:R:3:charge:R:1 formula=N6 topology=bicyclic-4-4-4-4 n_edges=9 n_rings=4 ff_energy=1011.7549 mace_energy_eV=-8937.851838 delta_E_eV_atom=0.7207046612697923 sg=P1 energy=-468.8348109834346 free_energy=-468.8348109834346 dipole="0.3515027735522108 0.34279006855040145 -0.3160531490084164" pbc="F F F"
N       16.16299079      16.18360592      14.84320585      -0.00002852      -0.00018354      -0.00007299       0.00214103
N       15.97091817      15.47687112      13.86304663      -0.00000119       0.00013950       0.00000797       0.00213542
N       14.20057511      14.01035327      16.03110730       0.00018026       0.00013338      -0.00018903       0.01701049
N       15.31081442      15.09293101      15.03291757      -0.00012630      -0.00007977       0.00013753       0.47624170
N       13.94509673      15.07447818      15.31388784       0.00020199      -0.00016495       0.00007864      -0.24874786
N       15.49041937      13.95481550      15.81834390      -0.00022624       0.00015538       0.00003788      -0.24878078
