4
Properties=species:S:1:pos:R:3:forces:R:3:charge:R:1 formula=N4 topology=chain integrity=OK energy_eV=-5958.674613 delta_E_eV_atom=0.8208 sg=P1 energy=-313.71103314436556 free_energy=-313.71103314436556 dipole="-3.7433684697553394e-05 3.3953207262078734e-05 9.822463904176377e-06" pbc="F F F"
N       -0.48936041       1.18922322       1.52550706      -0.00031096       0.00025588      -0.00021997       0.00225309
N       -0.53896010       0.19063780       1.06946854       0.00030326      -0.00024424       0.00023690      -0.00224542
N        0.52139252      -0.18571112      -1.07928621       0.00031717       0.00003964       0.00035824      -0.00223857
N        0.50692799      -1.19414990      -1.51568939      -0.00030948      -0.00005128      -0.00037517       0.00223089
