8
Properties=species:S:1:pos:R:3:forces:R:3:charge:R:1 formula=N8 topology=branched-tree n_edges=7 n_rings=0 ff_energy=19.8725 mace_energy_eV=-11923.316134 delta_E_eV_atom=-0.05183899488451971 sg=P1 energy=-627.4969558538827 free_energy=-627.4969558538827 dipole="-0.0023823833368505783 0.0005451334610445455 0.0014358342329462296" pbc="F F F"
N       15.09053855      16.92975558      16.81487151       0.00009970       0.00006593       0.00012771       0.00638844
N       13.26534933      13.90682725      14.93998964       0.00008708       0.00002541       0.00010443       0.00639547
N       16.97385337      14.18969760      16.38769920       0.00011605       0.00010144       0.00014566       0.00556273
N       15.28930359      15.75132216      13.00692671      -0.00015252      -0.00013587      -0.00023454       0.00555958
N       15.79148692      16.25741366      13.84321451       0.00015642       0.00014700       0.00023015      -0.00634026
N       13.91732131      14.22980251      15.76432206      -0.00008847      -0.00001068      -0.00011107      -0.00561564
N       14.55145320      16.58089760      15.92235546      -0.00009559      -0.00009160      -0.00012174      -0.00560713
N       16.30381782      13.72240244      15.65259198      -0.00012266      -0.00010163      -0.00014060      -0.00634319
