10
Properties=species:S:1:pos:R:3:forces:R:3:charge:R:1 formula=N10 topology=bicyclic-4-6-6 n_edges=12 n_rings=3 ff_energy=208.2616 mace_energy_eV=-47754.739653 delta_E_eV_atom=-3285.1112876128186 sg=P1 energy=-787.8286371566173 free_energy=-787.8286371566173 dipole="0.0005400107851987042 7.855935792136361e-05 -4.76235311734383e-06" pbc="F F F"
N       23.72876522      11.00014367       8.54516834      -0.00010561       0.00014752       0.00010070       0.00011316
N       15.95503537      16.90256735      17.03084578       0.00018296       0.00029786      -0.00005678      -0.17160545
N       13.91689818      17.12742776      15.98597574       0.00001103      -0.00029674      -0.00005363      -0.04100818
N       22.88316334      11.56778278       8.95605957       0.00008215      -0.00013873      -0.00008830      -0.00011316
N       12.77204287      16.55237236      15.81178791       0.00017148       0.00020025       0.00033271      -0.08049754
N       10.43812687      15.11326020      15.61431105      -0.00018417       0.00011073      -0.00011586       0.29309563
N       11.44166452      14.84444157      16.22134235      -0.00016524      -0.00028251       0.00021074      -0.04097187
N       14.92007142      16.85828507      16.59347539      -0.00038250      -0.00025340      -0.00007442       0.29315130
N       12.58643869      15.41959005      16.39531325       0.00008408       0.00015256      -0.00022426      -0.08046191
N        9.40284842      15.06845266      15.17769505       0.00030582       0.00006246      -0.00003091      -0.17170200
