10
Properties=species:S:1:pos:R:3:forces:R:3:charge:R:1 formula=N10 topology=bicyclic-3-4-7 n_edges=12 n_rings=3 ff_energy=334.4819 mace_energy_eV=-14897.497496 delta_E_eV_atom=0.6129281022813302 sg=P1 energy=-785.2462411391001 free_energy=-785.2462411391001 dipole="0.045840578756618934 0.11025543308431927 0.04954553340380848" pbc="F F F"
N       16.31683325      16.59626699      16.47723355      -0.00009516       0.00000815      -0.00012599       0.04879854
N       16.22054541      13.62712301      14.16136591       0.00014221       0.00012884      -0.00013559       0.01884117
N       15.00586657      16.05840670      16.32110680      -0.00006447       0.00001556      -0.00002423      -0.04473692
N       13.65669285      14.27259814      13.70756009       0.00020019       0.00002024       0.00001480       0.03419676
N       16.14794811      14.62586216      14.84905951       0.00008629       0.00001213       0.00008136      -0.05309051
N       14.09950150      13.02617096      13.67873243      -0.00007924       0.00006496       0.00006336      -0.01866836
N       15.61192529      17.30214008      15.80045236       0.00008088      -0.00007534       0.00003753       0.01085660
N       14.92815123      15.01637618      15.42442882      -0.00001981      -0.00007091       0.00010995       0.05497563
N       15.28785724      12.72743351      13.87177498      -0.00013859      -0.00008616       0.00002945      -0.02167898
N       13.93247591      15.19346946      14.44152726      -0.00011232      -0.00001749      -0.00005063      -0.02949394
