7
Properties=species:S:1:pos:R:3:forces:R:3:charge:R:1 formula=N7 topology=bicyclic-3-4-4 n_edges=9 n_rings=3 ff_energy=398.5163 mace_energy_eV=-10425.192905 delta_E_eV_atom=1.0494055147789823 sg=P1 energy=-545.9227616234999 free_energy=-545.9227616234999 dipole="0.06274921415130792 -0.19500420182241043 -0.019387181271472726" pbc="F F F"
N       15.42223585      14.56385627      13.73693582       0.00015324       0.00012054      -0.00017783       0.05031118
N       14.48081187      15.48882515      16.26098732       0.00031935      -0.00012476       0.00034664      -0.03608995
N       15.99454253      15.76978352      13.96158627      -0.00004848      -0.00041004       0.00012328      -0.11361114
N       14.37258984      14.29270131      14.74997415      -0.00018792       0.00026452       0.00005592       0.04258435
N       16.37649588      14.76660369      14.78621057       0.00016797       0.00012376      -0.00016154       0.05031116
N       15.32095110      14.49419551      15.79276282      -0.00012560       0.00027772       0.00012448       0.04258435
N       13.63356829      15.30881498      15.32938455      -0.00027856      -0.00025174      -0.00031095      -0.03608996
