6
Properties=species:S:1:pos:R:3:forces:R:3:charge:R:1 formula=N6 topology=chain integrity=OK energy_eV=-8940.537753 delta_E_eV_atom=0.3998 sg=P1 energy=-473.29663886795953 free_energy=-473.29663886795953 dipole="8.097739092761177e-05 -3.7814204782418596e-05 -0.0001207448747100898" pbc="F F F"
N        0.57181169      -0.35245373      -0.01101372      -0.00002332      -0.00002402      -0.00001324      -0.09148120
N       -0.57171659       0.35269114       0.01096630      -0.00006959       0.00001151       0.00029896      -0.09144203
N       -1.13167564       0.74554040       0.98921380       0.00031362      -0.00006183      -0.00037842       0.29145391
N        1.13164863      -0.74558202      -0.98922028       0.00015504      -0.00003741      -0.00021918       0.29144286
N       -1.85064975       1.22382854       1.71282468      -0.00020592       0.00004563       0.00014665      -0.20001984
N        1.85058165      -1.22402431      -1.71277077      -0.00016983       0.00006612       0.00016524      -0.19995370
