9
Properties=species:S:1:pos:R:3:forces:R:3:charge:R:1 formula=N9 topology=bicyclic-3-3-5-5 n_edges=12 n_rings=4 ff_energy=481.9024 mace_energy_eV=-13415.388693 delta_E_eV_atom=-0.23606592151963923 sg=P1 energy=-706.073097962256 free_energy=-706.073097962256 dipole="-0.03287344342166963 -0.16860408463106233 0.2333473803496951" pbc="F F F"
N       14.63275160      15.12165818      16.55818770      -0.00013770       0.00018044      -0.00008140      -0.00468784
N       15.43481142      13.90383468      16.71361687       0.00028051       0.00004934       0.00026620      -0.01501109
N       14.91701564      16.64149952      14.51047244       0.00029649      -0.00038174       0.00000771      -0.11852308
N       14.84509805      15.59526144      15.33084617      -0.00018006      -0.00011202      -0.00034362       0.14050909
N       15.20496730      16.15576826      13.36336889       0.00015499       0.00018731       0.00000058      -0.00457385
N       14.07239986      13.77280695      16.42724116      -0.00014499      -0.00018759       0.00017305      -0.01500089
N       15.04280707      13.41968838      15.38602800       0.00017628      -0.00005406      -0.00008421      -0.00468953
N       15.34013939      14.88588834      13.30142939      -0.00016150       0.00024743       0.00015087      -0.11854397
N       15.12224139      14.44517479      14.53878952      -0.00028402       0.00007089      -0.00008917       0.14052115
