8
 energy: -23.236425664963 gnorm: 0.000626133446 xtb: 6.6.1 (8d0f1dd)
N            0.68401169519214       -0.00141513076261        0.00084221942804
N            1.07804053523658        1.23028516138069       -0.00004899012098
N            0.00332869606167        1.93394293290805       -0.00153742359943
N           -1.07388739658857        1.23408967290797       -0.00165343339805
N           -0.68412475046605        0.00118496827244       -0.00018183113118
N           -1.07787311604432       -1.23037013911076       -0.00004547163145
N           -0.00333448756505       -1.93373477262654        0.00101923379256
N            1.07384934611453       -1.23398375626851        0.00160286775758
