10
Properties=species:S:1:pos:R:3:forces:R:3:charge:R:1 formula=N10 topology=branched-tree integrity=OK energy_eV=-14899.633541 delta_E_eV_atom=0.5261 sg=P1 energy=-787.0922968673566 free_energy=-787.0922968673566 dipole="0.28376716152747267 -0.7167230655310858 0.11673347971426112" pbc="F F F"
N        1.81970143      -0.36036386       0.21240369       0.00012000      -0.00007386      -0.00022435      -0.01508252
N       -0.31067616      -0.92353787      -0.06884354       0.00023889       0.00011844      -0.00002831       0.04093219
N        0.90044126      -0.86238543      -0.53422430      -0.00019806      -0.00003401       0.00001314      -0.07707005
N       -1.25690801      -1.51103458      -0.54444442      -0.00037451      -0.00016934      -0.00012138       0.31830965
N       -1.31123950       0.82860666       0.13044288      -0.00001133       0.00018063       0.00003119      -0.34678694
N       -0.96654212       1.62351820      -0.64845354       0.00001181      -0.00015834      -0.00016425       0.30594991
N       -2.23634004      -2.02579070      -0.72888823       0.00022072       0.00006461       0.00003800      -0.10195543
N        1.84796933       0.13898666       1.30699465      -0.00014156      -0.00014105      -0.00007119       0.29156890
N        2.15100192       0.66130459       2.25643727       0.00014422       0.00025356       0.00035385      -0.14420140
N       -0.63740810       2.43069636      -1.38142445      -0.00001017      -0.00004064       0.00017329      -0.27166431
