9
Properties=species:S:1:pos:R:3:initial_charges:R:1:forces:R:3:charge:R:1 N9=T charge=1 mult=1 PG=C2v |=T B3LYP/aug-cc-pVDZ=T src:=T B=T p.57=T (B3LYP/aug-cc-pVDZ)=T -=T chaine=T energy=-697.2015364858015 free_energy=-697.2015364858015 dipole="4.1922459524583555 -0.8327922896246349 5.13282879611092e-13" pbc="F F F"
N       -0.18110762       0.20817152       0.00000000       1.00000000      -0.00001866       0.00004020       0.00000000      -0.03681424
N        0.92781919       0.07595136       0.00000000       0.00000000       0.00020011      -0.00001163       0.00000000       0.33180121
N        2.12560959       0.19654875      -0.00000000       0.00000000      -0.00037854      -0.00008917      -0.00000001       0.00555634
N        3.05686312      -0.68704934       0.00000000       0.00000000       0.00040469       0.00004497       0.00000002       0.08739005
N        4.24139312      -0.66528587      -0.00000000       0.00000000       0.00010567      -0.00014932       0.00000000       0.22411989
N        5.22641976      -1.32354674      -0.00000000       0.00000000      -0.00017397       0.00018675      -0.00000002       0.08739939
N        6.48744041      -1.08313474       0.00000000       0.00000000      -0.00038250       0.00014925       0.00000001       0.00556966
N        7.43025897      -1.83167736      -0.00000000       0.00000000       0.00022644       0.00002189      -0.00000000       0.33180406
N        8.43491546      -2.31939459      -0.00000000       0.00000000       0.00001674      -0.00019292      -0.00000000      -0.03682637
