7
Properties=species:S:1:pos:R:3:forces:R:3:charge:R:1 formula=N7 topology=bicyclic-3-6 n_edges=8 n_rings=2 ff_energy=257.7383 mace_energy_eV=-10426.915038 delta_E_eV_atom=0.8033865399356728 sg=P1 energy=-550.2761545542584 free_energy=-550.2761545542584 dipole="0.004078240364587055 -0.0029552139764386664 -0.008675171187865514" pbc="F F F"
N       14.50162688      16.06315020      14.23840487      -0.00002350      -0.00007205       0.00017806      -0.07257781
N       15.88963849      13.84731160      15.64471427      -0.00012379       0.00008791       0.00001570      -0.07260059
N       15.37998266      15.06309867      13.67948320      -0.00010108       0.00023985      -0.00026511       0.01759351
N       15.23648907      14.49179798      16.41748839      -0.00016138       0.00019392      -0.00004459       0.12138562
N       14.24147742      16.08024911      15.40937235       0.00007590      -0.00018584       0.00012794       0.12136436
N       15.93366204      14.17919205      14.24047369       0.00017992      -0.00023816       0.00015085       0.01761329
N       14.44001020      15.50256385      16.54975420       0.00015393      -0.00002563      -0.00016284      -0.13277839
