10
Properties=species:S:1:pos:R:3:forces:R:3:charge:R:1 formula=N10 topology=bicyclic-3-6 n_edges=11 n_rings=2 ff_energy=275.5108 mace_energy_eV=-14900.371589 delta_E_eV_atom=0.32551881266522287 sg=P1 energy=-789.0239020206329 free_energy=-789.0239020206329 dipole="0.016109765948361197 0.1354179255038757 -0.08903940413657037" pbc="F F F"
N       14.86589003      15.15501687      17.90966107      -0.00003452       0.00000648       0.00019329       0.27655301
N       16.05492301      12.29775902      12.18652421       0.00024805       0.00009116      -0.00035718      -0.18565991
N       15.08159028      16.33097368      17.83897660       0.00019609       0.00017951      -0.00004527      -0.07655383
N       15.37732886      15.61668047      15.06802786      -0.00030966      -0.00020666      -0.00008532       0.03380846
N       16.06946823      14.78364291      14.46168362       0.00012619      -0.00025867      -0.00013174      -0.05508566
N       15.40913279      17.11618939      16.81018834       0.00009193      -0.00016945      -0.00012393      -0.06503284
N       15.43846284      14.06040597      13.53079082      -0.00001863      -0.00027333      -0.00003964      -0.07509250
N       15.89273917      13.15461555      12.89885486      -0.00006890       0.00026036      -0.00000908       0.29594887
N       15.62816098      16.65407923      15.68866966      -0.00004209       0.00013464       0.00024542       0.04834284
N       14.61580774      14.10156620      18.22250843      -0.00018846       0.00023595       0.00035343      -0.19722842
