4
Properties=species:S:1:pos:R:3:forces:R:3:charge:R:1 N4=T charge=0 mult=1 PG=D2h |=T B3LYP/aug-cc-pVDZ=T src:=T B=T p.20=T (B3LYP/aug-cc-pVDZ,=T non-minimum=T a=T plus=T haut=T niveau)=T energy=-310.6763291353577 free_energy=-310.6763291353577 dipole="2.1698608634596805e-10 1.765560822443396e-10 -3.4372624129098076e-05" pbc="F F F"
N        0.03057302       0.00274697      -0.00000000      -0.00037036       0.00027845       0.00000000       0.00000000
N        1.50662698       0.00274697       0.00000000       0.00037036       0.00027845      -0.00000000       0.00000000
N        1.50662698       1.25345303      -0.00000000       0.00037036      -0.00027845       0.00000000       0.00000000
N        0.03057302       1.25345303       0.00000000      -0.00037036      -0.00027845      -0.00000000       0.00000000
