6
Properties=species:S:1:pos:R:3:initial_charges:R:1:initial_magmoms:R:1:forces:R:3:charge:R:1 N6=T charge=-1 mult=2 PG=Cs |=T B3LYP/aug-cc-pVDZ=T src:=T B=T p.36=T (B3LYP/aug-cc-pVDZ)=T -=T chaine=T en=T W=T energy=-478.8904086541278 free_energy=-478.8904086541278 dipole="-2.731664145074351 0.5492903976955648 -5.737415666092971e-16" pbc="F F F"
N       -0.01886465       0.06774989       0.00000000      -1.00000000       1.00000000      -0.00012583      -0.00012288       0.00000000      -0.43139711
N        1.13199285       0.11729327       0.00000000       0.00000000       0.00000000       0.00011145       0.00004768      -0.00000000       0.25989754
N        2.29057665       0.25064464      -0.00000000       0.00000000       0.00000000       0.00001582       0.00009651       0.00000000      -0.32850068
N        3.17273081      -1.34934151      -0.00000000       0.00000000       0.00000000      -0.00025499       0.00001949      -0.00000000      -0.32849556
N        4.33130575      -1.21592977      -0.00000000       0.00000000       0.00000000       0.00048695       0.00002534       0.00000000       0.25989696
N        5.48216259      -1.16628652       0.00000000       0.00000000       0.00000000      -0.00023341      -0.00006614      -0.00000000      -0.43140114
