10
Properties=species:S:1:pos:R:3:forces:R:3:charge:R:1 formula=N10 topology=branched-tree n_edges=9 n_rings=0 ff_energy=22.6108 mace_energy_eV=-14900.710083 delta_E_eV_atom=0.29166943059431105 sg=P1 energy=-789.1327032900574 free_energy=-789.1327032900574 dipole="-0.03573386731211564 0.17641676614256516 0.09666383450152234" pbc="F F F"
N       13.93054357      15.06407088      15.64929074       0.00008657       0.00000739      -0.00017513      -0.05586485
N       13.20073368      15.00641915      17.79397437       0.00007011      -0.00003124      -0.00009534       0.29423835
N       14.98040361      15.09412649      14.99223760      -0.00000638       0.00016113      -0.00037714       0.05414329
N       14.06680584      15.12679148      16.98123844      -0.00009036      -0.00001013       0.00026965      -0.07893381
N       15.86198137      15.00041222      12.86961580      -0.00005249       0.00015196       0.00005860      -0.07187894
N       16.06083332      13.66026212      12.73355577      -0.00006558       0.00005348       0.00022251      -0.11374016
N       16.58388925      13.13132816      11.80022841       0.00007043      -0.00009102      -0.00019683       0.29754539
N       17.02722158      12.39656877      11.07106669       0.00001060      -0.00001277      -0.00002058      -0.20255389
N       12.60302786      14.93543699      18.74621002      -0.00000205       0.00004069       0.00002479      -0.19254498
N       15.26299024      15.42791931      13.84301197      -0.00002085      -0.00026949       0.00028946       0.06958961
