4
Properties=species:S:1:pos:R:3:forces:R:3:charge:R:1 formula=N4 topology=bicyclic-3-3-3 n_edges=6 n_rings=3 ff_energy=834.2807 mace_energy_eV=-18292.690312 delta_E_eV_atom=-3082.8099002568256 sg=P1 energy=-312.5045819682932 free_energy=-312.5045819682932 dipole="1.8177390668456155e-07 -2.2287708632946994e-07 2.3171458168460017e-08" pbc="F F F"
N       16.95836432      14.91524179      16.87690582       0.00000087       0.00001818      -0.00018668      -0.00000000
N       17.37040854      15.12159957      15.55183381       0.00000936      -0.00001853       0.00022657       0.00000015
N       16.68665938      16.13522540      16.23973710       0.00017934      -0.00004493       0.00009591      -0.00000028
N       18.00317449      15.80907036      16.59833431      -0.00018957       0.00004529      -0.00013580       0.00000013
