6
Properties=species:S:1:pos:R:3:forces:R:3:charge:R:1 formula=N6 topology=ring-5-subst integrity=OK energy_eV=-8939.561025 delta_E_eV_atom=0.5626 sg=P1 energy=-470.6695178079112 free_energy=-470.6695178079112 dipole="-0.029306266252333693 0.10417758639297009 0.12348581393366549" pbc="F F F"
N       -0.82017132       0.55080847      -0.52925269       0.00013382       0.00017939       0.00001740      -0.10222425
N        0.13448596      -0.47850121      -0.56709113       0.00022116      -0.00008201      -0.00009930       0.32145691
N        0.78525267      -0.42673569       0.67635414      -0.00003701       0.00010179       0.00005902      -0.10222768
N        0.24322178       0.51275158       1.29594761       0.00001819      -0.00001683      -0.00015048       0.02125474
N       -0.69149066       1.08192624       0.59400073      -0.00011546      -0.00027365      -0.00001617       0.02124676
N        0.34870157      -1.24024939      -1.46995865      -0.00022070       0.00009132       0.00018952      -0.15950647
