9
Properties=species:S:1:pos:R:3:forces:R:3:charge:R:1 formula=N9 topology=bicyclic-4-4-4 n_edges=11 n_rings=3 ff_energy=244.9921 mace_energy_eV=-13408.575207 delta_E_eV_atom=0.5209879955057204 sg=P1 energy=-709.2438461369924 free_energy=-709.2438461369924 dipole="0.057354159393624246 0.023827240302007568 0.04764431005289436" pbc="F F F"
N       16.56257406      16.23782698      15.18210313      -0.00005946      -0.00009611      -0.00006945      -0.05424442
N       15.80194571      14.75885651      16.83190005      -0.00004653      -0.00013932       0.00004240      -0.05430288
N       14.55306848      14.48337464      16.53701250      -0.00011533      -0.00009971      -0.00009988      -0.05182970
N       13.69815370      15.03661671      15.89761818      -0.00005233       0.00002399      -0.00011975       0.26552569
N       16.08595115      15.79882622      14.04078323       0.00005640      -0.00005898       0.00008322      -0.05178375
N       12.72976726      15.37463936      15.42562828       0.00006831       0.00001703       0.00021097      -0.17562209
N       16.49794562      15.62901590      16.26969445       0.00009611       0.00022983      -0.00019603       0.03237119
N       15.69876516      14.73111035      13.64600211       0.00009116       0.00025611       0.00013405       0.26552163
N       15.35717095      13.85056382      13.02732742      -0.00003834      -0.00013284       0.00001446      -0.17563567
