9
Properties=species:S:1:pos:R:3:forces:R:3:charge:R:1 formula=N9 topology=ring-3-substituted n_edges=9 n_rings=1 ff_energy=254.7911 mace_energy_eV=-13410.217643 delta_E_eV_atom=0.3384951931343494 sg=P1 energy=-709.5837816314919 free_energy=-709.5837816314919 dipole="-0.008375436714125 -0.006077777807504201 -0.02513847744453094" pbc="F F F"
N       15.50313463      15.73225718      14.56881781       0.00005683       0.00006334      -0.00003111      -0.05341875
N       15.61342236      16.58202055      13.55928647       0.00010375      -0.00000354       0.00006236      -0.06100444
N       14.19249353      14.11665771      15.39813822      -0.00004691      -0.00011001       0.00000580      -0.05344542
N       17.06698440      18.28219310      13.00581773      -0.00000160       0.00002121      -0.00002694      -0.19719191
N       14.67994630      14.80155099      14.47874263      -0.00002540       0.00000410      -0.00004669       0.05498523
N       13.64676027      12.94803536      15.09825511       0.00004320       0.00000798       0.00002021      -0.06102169
N       12.38908829      11.39080629      16.23976578      -0.00000779       0.00002709      -0.00000298      -0.19718121
N       16.44613403      17.42375112      13.39907776      -0.00011957      -0.00005628       0.00002745       0.28414003
N       12.99713900      12.24008408      15.80845174      -0.00000251       0.00004612      -0.00000811       0.28413816
