10
Properties=species:S:1:pos:R:3:forces:R:3:charge:R:1 formula=N10 topology=bicyclic-4-5-5 n_edges=12 n_rings=3 ff_energy=184.4536 mace_energy_eV=-14899.381872 delta_E_eV_atom=0.4244905395680689 sg=P1 energy=-788.8152032290368 free_energy=-788.8152032290368 dipole="0.5851934436908389 0.14381438512641856 -0.10145046471965712" pbc="F F F"
N       15.70666144      15.70582718      15.90554233      -0.00032840      -0.00020039       0.00030147      -0.11381330
N       14.98838671      13.81947846      13.52500818      -0.00004382      -0.00043773      -0.00020534      -0.02863226
N       12.61476240      14.79065139      16.75697048       0.00008385       0.00002065      -0.00006704      -0.05643802
N       13.53615758      15.48907136      14.98452494       0.00007513      -0.00002716       0.00002773      -0.15183280
N       14.41911334      13.17949899      12.83769980       0.00005425       0.00044321       0.00019800       0.02427486
N       13.83695331      14.96900756      17.07647963      -0.00016798       0.00004687      -0.00018177      -0.11627669
N       17.02930866      16.37106631      14.14328632      -0.00001804       0.00004836       0.00006167      -0.13230408
N       14.41642689      15.40344898      15.97670672       0.00027195       0.00008068       0.00005919       0.29140615
N       12.43501201      15.10339638      15.49618118      -0.00014989      -0.00007684       0.00015297      -0.05474058
N       16.29092932      16.03979016      14.91297939       0.00022294       0.00010234      -0.00034687       0.33835672
