4
Properties=species:S:1:pos:R:3:forces:R:3:charge:R:1 formula=N4 topology=chain integrity=OK energy_eV=-5948.072428 delta_E_eV_atom=3.4713 sg=P1 energy=-313.70794293143234 free_energy=-313.70794293143234 dipole="0.0012660048009839279 -0.00042023010367066895 -0.00026151302462895415" pbc="F F F"
N       -0.64852548      -1.26775702       0.44896018       0.00005179       0.00012347      -0.00020168      -0.00234843
N        0.52077249       1.42472979      -1.36193195       0.00000077       0.00020928      -0.00040914       0.00236135
N        0.11187177       1.44796934      -0.34288118       0.00000050      -0.00006075       0.00024775      -0.00236109
N        0.01588122      -1.60494213       1.25585297      -0.00005305      -0.00027200       0.00036307       0.00234816
