6
Properties=species:S:1:pos:R:3:forces:R:3:charge:R:1 formula=N6 topology=chain integrity=OK energy_eV=-8940.377611 delta_E_eV_atom=0.4265 sg=P1 energy=-473.2966388912072 free_energy=-473.2966388912072 dipole="1.1783443053394129e-05 3.882666027891632e-05 -1.9483448166955468e-05" pbc="F F F"
N        0.24326615       1.26015244      -2.49184717       0.00002382      -0.00001866       0.00011520      -0.19998469
N        0.18711425       0.76784407      -1.48002802      -0.00004763       0.00005157      -0.00023492       0.29144763
N       -0.41689901      -0.36449842       0.38032709      -0.00011689      -0.00004452      -0.00003321      -0.09145283
N        0.41688593       0.36465064      -0.38026076       0.00010027       0.00000260       0.00009626      -0.09145926
N       -0.18709677      -0.76785479       1.48002695      -0.00000024      -0.00001729       0.00009962       0.29144711
N       -0.24327054      -1.26029393       2.49178190       0.00004067       0.00002630      -0.00004295      -0.19999797
