8
Properties=species:S:1:pos:R:3:forces:R:3:charge:R:1 formula=N8 topology=ring-3-substituted n_edges=8 n_rings=1 ff_energy=253.1776 mace_energy_eV=-11920.641019 delta_E_eV_atom=0.2825503669507725 sg=P-1 energy=-631.0201001831934 free_energy=-631.0201001831934 dipole="-0.0001243803660157691 9.981880489036412e-05 -0.0002667896641521519" pbc="F F F"
N       17.73048341      14.58193363      15.77699284      -0.00006972      -0.00018478      -0.00006488       0.28827136
N       14.51076607      14.75708511      14.96208907       0.00007557      -0.00007120       0.00023472      -0.04505489
N       16.55576754      14.40977141      15.62869191      -0.00001145       0.00018550      -0.00007526      -0.05513375
N       12.48518132      15.34007984      14.15127150       0.00017713      -0.00025661       0.00012391       0.28827581
N       18.80766450      14.46121120      16.08913900       0.00014801       0.00022909      -0.00018626      -0.18809449
N       11.40769809      15.46048883      13.84006939      -0.00011340       0.00032508      -0.00034905      -0.18804575
N       13.66000567      15.51242218      14.29863852      -0.00008583       0.00006154      -0.00004625      -0.05514345
N       15.70530672      15.16530944      14.96503076      -0.00012031      -0.00028862       0.00036306      -0.04507483
