10
Properties=species:S:1:pos:R:3:forces:R:3:charge:R:1 formula=N10 topology=ring-5-substituted n_edges=10 n_rings=1 ff_energy=39.4685 mace_energy_eV=-14901.687202 delta_E_eV_atom=0.19395754267407028 sg=P1 energy=-784.4950916724241 free_energy=-784.4950916724241 dipole="0.04623790416192378 0.09445240630272145 -0.1172691618921551" pbc="F F F"
N       16.47424476      15.97286199      16.17599091       0.00001762      -0.00021331       0.00015008       0.01694510
N       13.28964170      15.76427227      15.43774538      -0.00027882       0.00012151      -0.00012633      -0.01368960
N       14.46165192      12.76312798      13.11699747       0.00003488      -0.00001682       0.00002541       0.01509882
N       16.12867739      14.01806233      15.44852495       0.00002020      -0.00023450       0.00020233      -0.10310122
N       12.38620285      16.23821755      15.03233166       0.00024264      -0.00008185       0.00011396       0.01364547
N       14.86856819      13.34774863      17.29937198       0.00005650       0.00006113      -0.00014494      -0.16977297
N       16.67412320      15.11769173      15.21370895      -0.00016140       0.00022407      -0.00009535       0.01163659
N       15.49995327      14.17311216      16.69945827       0.00004672      -0.00002730      -0.00006592       0.33220304
N       15.78771448      15.48393406      17.09777238       0.00003704       0.00015222      -0.00006838      -0.09903441
N       14.28744918      13.46806490      13.94079621      -0.00001537       0.00001485       0.00000915      -0.00393082
