12
Properties=species:S:1:pos:R:3:forces:R:3:charge:R:1 formula=N12 topology=ring-3-subst integrity=OK energy_eV=-17879.163291 delta_E_eV_atom=0.5592 sg=P1 energy=-944.5323913081291 free_energy=-944.5323913081291 dipole="-0.14960084435729903 0.03747807775742858 0.06428140190860872" pbc="F F F"
N        1.17762996       1.15349451       1.39480339      -0.00013107      -0.00016492      -0.00020124      -0.07276008
N        0.92604069       0.39501881       0.32997455      -0.00018181       0.00004954       0.00010583      -0.15124510
N       -0.29214318       0.07038177       0.17471411       0.00031863       0.00019991       0.00025942       0.28575343
N        2.24255632       1.56811168       1.74109781       0.00026621       0.00017114       0.00013940       0.29779110
N        3.08452994       2.07978035       2.28617291      -0.00016217      -0.00010863      -0.00009055      -0.18838456
N       -0.78931859      -0.64783278      -0.77292653      -0.00032413       0.00000916      -0.00002659      -0.17401393
N       -1.28128827       0.40918358       1.14033669       0.00002800       0.00003899      -0.00009274      -0.06552372
N        0.09615062      -1.20887852      -1.59185390       0.00027972      -0.00000791      -0.00000615      -0.06623840
N       -0.13790409      -1.86466879      -2.56084798      -0.00001224      -0.00012503      -0.00023196       0.29669787
N       -2.48879651       0.86484498       0.52867506       0.00004675      -0.00027104       0.00021214       0.00439023
N       -0.06409087      -2.50018027      -3.48767661      -0.00001406      -0.00000054       0.00005279      -0.18708909
N       -2.47336607      -0.31925533       0.81753047      -0.00011384       0.00020933      -0.00012035       0.02062226
