8
Properties=species:S:1:pos:R:3:initial_charges:R:1:initial_magmoms:R:1:forces:R:3:charge:R:1 N8=T charge=-1 mult=2 PG=C2h |=T B3LYP/aug-cc-pVDZ=T src:=T B=T p.54=T (B3LYP/aug-cc-pVDZ)=T energy=-637.3440967524988 free_energy=-637.3440967524988 dipole="-3.412285082053872 -0.38816498737143473 -9.060146491844376e-16" pbc="F F F"
N       -0.18303132      -0.02781454       0.00000000      -1.00000000       1.00000000       0.00034276       0.00012052      -0.00000000      -0.38776125
N        0.96418363      -0.16977614       0.00000000       0.00000000       0.00000000      -0.00044093      -0.00009701      -0.00000000       0.18982493
N        2.14304650       0.02132307      -0.00000000       0.00000000       0.00000000       0.00003809       0.00010024       0.00000000      -0.11833119
N        3.12881143      -0.88102866       0.00000000       0.00000000       0.00000000       0.00010801      -0.00025350       0.00000000      -0.18373101
N        4.35605438      -0.50653242       0.00000000       0.00000000       0.00000000      -0.00011420      -0.00003958      -0.00000000      -0.18372891
N        4.67004912       0.79245682      -0.00000000       0.00000000       0.00000000      -0.00005712       0.00006474      -0.00000000      -0.11832198
N        5.75474038       1.29213438      -0.00000000       0.00000000       0.00000000       0.00023796       0.00015386      -0.00000000       0.18982412
N        6.62719189       2.05047648      -0.00000000       0.00000000       0.00000000      -0.00011457      -0.00004926       0.00000000      -0.38777469
