8
Properties=species:S:1:pos:R:3:forces:R:3:charge:R:1 formula=N8 topology=ring-4-substituted n_edges=8 n_rings=1 ff_energy=117.4868 mace_energy_eV=-11919.417824 delta_E_eV_atom=0.43544968244441407 sg=P1 energy=-627.400206726158 free_energy=-627.400206726158 dipole="-0.3774837445111263 -0.4244557550573787 0.14465999799013823" pbc="F F F"
N       15.97554269      15.09537618      13.98235932       0.00009235      -0.00005709       0.00002719      -0.01460579
N       15.01665631      15.15435012      14.84173089      -0.00010618       0.00001542      -0.00003918      -0.15672354
N       13.10685597      12.18595872      15.21746059       0.00011780       0.00013376      -0.00006793      -0.08135800
N       14.82590475      17.21824044      15.89833305       0.00021065       0.00015121      -0.00008216       0.00092661
N       14.67738830      13.76696871      14.53672956       0.00007081       0.00010235      -0.00005673       0.13836347
N       15.59807348      17.90789988      15.52573934      -0.00020509      -0.00017351       0.00009064      -0.00981849
N       13.86776096      12.94163319      14.88318979      -0.00014258      -0.00019476       0.00010008       0.28035409
N       15.79126123      13.87594223      13.61518086      -0.00003776       0.00002262       0.00002809      -0.15713835
