6
Properties=species:S:1:pos:R:3:forces:R:3:charge:R:1 formula=N6 topology=bicyclic-3-3 n_edges=7 n_rings=2 ff_energy=431.5013 mace_energy_eV=-11303.633843 delta_E_eV_atom=-393.5762961283401 sg=P1 energy=-468.0377151322691 free_energy=-468.0377151322691 dipole="-0.004716991349490668 -0.005030208356799777 0.011584542973751822" pbc="F F F"
N       14.76723053      14.46844083      13.75693455       0.00021358      -0.00000514       0.00013733       0.10380122
N       13.80214892      13.45513608      16.56232875       0.00006202       0.00024026       0.00010522      -0.00042290
N       14.42552693      15.74561123      13.87034602      -0.00003418       0.00004810       0.00004601      -0.10336287
N       16.07198932      14.50213178      13.99629061       0.00004562      -0.00015160      -0.00018946      -0.10341588
N       15.54572735      15.58077984      14.56226646      -0.00018882       0.00007781       0.00001862       0.10386789
N       14.34065933      14.23289657      17.12058575      -0.00009823      -0.00020943      -0.00011773      -0.00046746
