7
Properties=species:S:1:pos:R:3:forces:R:3:charge:R:1 formula=N7 topology=bicyclic-5-5 n_edges=8 n_rings=2 ff_energy=89.8924 mace_energy_eV=-10428.37088 delta_E_eV_atom=0.5954090918887687 sg=P1 energy=-548.4539573760636 free_energy=-548.4539573760636 dipole="-0.0029481103589263564 0.01204335958987708 -0.012348687018434933" pbc="F F F"
N       15.64602307      14.69377528      17.02335868      -0.00020868      -0.00000806      -0.00000800      -0.17803858
N       15.35698504      13.86700453      16.27925530       0.00039154      -0.00002159      -0.00006362       0.35029889
N       16.36560255      15.42539707      13.33400484       0.00000570       0.00005888       0.00012680       0.00140190
N       13.09227065      15.66405264      14.34004031       0.00004791      -0.00004534       0.00002172       0.00139649
N       16.64347487      16.21195229      14.04835449       0.00000402      -0.00004266      -0.00010936       0.00140927
N       15.06587749      13.04947972      15.52581956      -0.00019494      -0.00001069       0.00003458      -0.17788084
N       13.36817099      16.45087416      15.05485970      -0.00004556       0.00006945      -0.00000212       0.00141286
