7
Properties=species:S:1:pos:R:3:forces:R:3:charge:R:1 formula=N7 topology=bicyclic-4-4-4 n_edges=9 n_rings=3 ff_energy=384.8014 mace_energy_eV=-10428.045486 delta_E_eV_atom=0.6418940348362412 sg=P1 energy=-550.0417267157701 free_energy=-550.0417267157701 dipole="-0.04941886431649149 0.13735656663955112 0.06412391495962286" pbc="F F F"
N       15.05576650      13.57080088      13.99074448       0.00022849       0.00016278      -0.00014325      -0.06494147
N       14.72468306      15.96865638      15.29381647      -0.00016748       0.00024093       0.00013625      -0.06510898
N       15.91291751      15.66582654      15.52518068       0.00035539      -0.00000879       0.00021590       0.25157327
N       13.86987336      15.34655503      14.63094417      -0.00008232      -0.00013841      -0.00027307       0.25158103
N       12.80115685      15.30062242      14.23474944      -0.00011632      -0.00006293       0.00004821      -0.15411263
N       16.06572508      13.72871995      14.43269645      -0.00025044      -0.00018161       0.00014340      -0.06492662
N       16.89894477      15.94102562      16.02842128       0.00003268      -0.00001196      -0.00012742      -0.15406460
