6
Properties=species:S:1:pos:R:3:forces:R:3:charge:R:1 N5H=T charge=0 mult=1 PG=C2v |=T MP2(fc)/6-31G*=T src:=T GS=T Fig.5=T p.7129=T (MP2(fc)/6-31G*)=T -=T pentazole=T 2=T energy=-408.95595991848666 free_energy=-408.95595991848666 dipole="-0.5222585381782928 -0.6437750523498454 -2.699036444428848e-16" pbc="F F F"
N        0.05596115       0.04347118       0.00000000      -0.00007860      -0.00001376       0.00000000       0.10191024
N        1.37460404      -0.04991124      -0.00000000      -0.00002711      -0.00001630      -0.00000000      -0.08319679
N        1.80171564       1.14662692      -0.00000000      -0.00012169       0.00002466       0.00000000      -0.05779135
N        0.77545218       1.97917182      -0.00000000       0.00013726       0.00004971      -0.00000000      -0.05779067
N       -0.30730658       1.31452385       0.00000000       0.00001079      -0.00000792      -0.00000000      -0.08320311
H       -0.58010643      -0.74055853      -0.00000000       0.00007935      -0.00003639       0.00000000       0.18007169
