7
Properties=species:S:1:pos:R:3:forces:R:3:charge:R:1 formula=N7 topology=bicyclic-3-3 n_edges=8 n_rings=2 ff_energy=521.6156 mace_energy_eV=-10429.715094 delta_E_eV_atom=0.4033785594317578 sg=P1 energy=-549.9743946850941 free_energy=-549.9743946850941 dipole="0.14211217154506456 0.01083394288876337 -0.08717723208436445" pbc="F F F"
N       11.91718309      15.15192896      16.86940191       0.00011139       0.00000981       0.00010189      -0.02366560
N       16.73626902      15.40889457      13.87411149      -0.00032367       0.00006612      -0.00001748       0.21901477
N       12.84590561      15.51213854      16.39505002      -0.00018152       0.00006575      -0.00003118      -0.02351367
N       13.97763679      13.94039438      15.15656604       0.00011739       0.00006378       0.00000400      -0.16700862
N       15.94526922      14.46729139      14.07131970      -0.00026155       0.00007802       0.00014571      -0.05287215
N       17.69246377      15.81189205      13.39463107       0.00039344       0.00002531      -0.00000804      -0.17132291
N       14.89971803      14.48085555      14.74424613       0.00014452      -0.00030880      -0.00019489       0.21936818
