8
Properties=species:S:1:pos:R:3:forces:R:3:charge:R:1 formula=N8 topology=bicyclic-3-5 n_edges=9 n_rings=2 ff_energy=270.2761 mace_energy_eV=-11917.59899 delta_E_eV_atom=0.6628039158551928 sg=P1 energy=-628.7338674741609 free_energy=-628.7338674741609 dipole="-0.13952671232904088 0.08693958499584806 -0.027957604637390318" pbc="F F F"
N       17.43444257      14.29043122      16.70354668       0.00011420       0.00007251       0.00010573      -0.18194708
N       14.21227946      14.41322145      13.59385421       0.00000397      -0.00019072      -0.00033640      -0.03916596
N       15.56747202      14.50133467      15.37618161      -0.00015251      -0.00007861      -0.00017460      -0.09620545
N       13.09462900      14.69981938      14.24793828      -0.00015143      -0.00001940       0.00000185       0.01929846
N       16.60571662      14.33484612      15.94528702       0.00009357      -0.00003811       0.00002436       0.30040810
N       15.30611271      14.21519366      14.08972246       0.00015508       0.00007231       0.00022604      -0.01753800
N       12.42526664      15.91469597      14.19293001       0.00000435       0.00014807       0.00012417       0.04745724
N       12.92330097      15.76838875      15.29244369      -0.00006724       0.00003395       0.00002885      -0.03230731
