8
Properties=species:S:1:pos:R:3:forces:R:3:charge:R:1 formula=N8 topology=bicyclic-4-4-6 n_edges=10 n_rings=3 ff_energy=294.3154 mace_energy_eV=-11914.013303 delta_E_eV_atom=1.1110147843064624 sg=P1 energy=-626.5007055487067 free_energy=-626.5007055487067 dipole="0.027154112118159705 0.026358234962691202 -0.12229660475110819" pbc="F F F"
N       15.63020068      14.10632081      13.68347260      -0.00002658       0.00027595      -0.00007661       0.13772449
N       15.41730057      13.71179059      14.76457004       0.00002163      -0.00009620      -0.00002113      -0.08043270
N       14.93051885      16.01285232      15.15229636       0.00006822       0.00012166      -0.00034332      -0.08043184
N       15.78080784      14.77265653      16.25249295       0.00008224       0.00002671       0.00001433      -0.03509694
N       15.20939045      16.09553251      14.01864984      -0.00000070      -0.00027156       0.00017936       0.13772965
N       15.58565030      15.26187219      13.10411646      -0.00003226      -0.00001314       0.00013346      -0.10216878
N       14.74351700      14.44466545      16.89675529      -0.00002961      -0.00004240       0.00014223       0.05777304
N       14.08933044      14.48843469      15.81566854      -0.00008296      -0.00000104      -0.00002831      -0.03509693
