9
Properties=species:S:1:pos:R:3:forces:R:3:charge:R:1 formula=N9 topology=ring-3-substituted n_edges=9 n_rings=1 ff_energy=234.7373 mace_energy_eV=-13411.2274 delta_E_eV_atom=0.22629993568648388 sg=P1 energy=-708.348808340983 free_energy=-708.348808340983 dipole="-0.07714586142463396 -0.30126651197255844 -0.6079350063890261" pbc="F F F"
N       15.91730395      15.38762209      15.71060714      -0.00001865      -0.00002871      -0.00008589      -0.31341881
N       14.82773945      15.10669774      13.82891932       0.00008539      -0.00017054      -0.00003963      -0.00343641
N       17.86030168      13.85496517      13.15921470       0.00002078      -0.00000452      -0.00000375      -0.15423934
N       12.56519471      15.36695672      14.17197181      -0.00009827       0.00004846      -0.00000051      -0.15531907
N       16.78237830      14.12968801      13.30605524      -0.00003824       0.00001360       0.00000701       0.32450070
N       13.63661091      15.09333043      13.94827060       0.00022772      -0.00004607       0.00001684       0.29104109
N       15.51472919      16.20533363      16.42383457       0.00011143      -0.00022987      -0.00022731       0.32423073
N       15.13245847      17.00881148      17.14175225      -0.00014020       0.00024503       0.00023816      -0.25049921
N       15.58552420      14.15642649      13.29781538      -0.00014996       0.00017262       0.00009508      -0.06285968
