9
Properties=species:S:1:pos:R:3:forces:R:3:charge:R:1 formula=N9 topology=bicyclic-5-5 n_edges=10 n_rings=2 ff_energy=52.548 mace_energy_eV=-13409.017619 delta_E_eV_atom=0.4718311528361028 sg=P1 energy=-708.6242910709075 free_energy=-708.6242910709075 dipole="0.13386219578480732 -0.03608886372963464 -0.03647873682171058" pbc="F F F"
N       16.32896356      15.44250283      13.81693633       0.00013589       0.00008052      -0.00000848      -0.12473698
N       15.16169403      15.43495299      14.36250239      -0.00001928       0.00027215      -0.00012984       0.28428146
N       13.93608467      14.28548100      15.74042122       0.00010461       0.00009370      -0.00014753      -0.23024686
N       16.93104666      14.40052707      14.27315483      -0.00037511       0.00002494      -0.00000223      -0.01885359
N       13.28731173      15.38316542      15.26651117       0.00007948      -0.00008389      -0.00010510       0.37827875
N       16.21023969      13.71530038      15.09001135       0.00013853      -0.00003345       0.00010029      -0.12473696
N       12.15155607      15.68942419      15.57609987      -0.00005136       0.00007051       0.00009053      -0.21802045
N       15.08647924      14.34070679      15.16904596      -0.00008691      -0.00023808       0.00016697       0.28428147
N       14.06062898      16.09735940      14.40493381       0.00007416      -0.00018641       0.00003540      -0.23024684
