7
Properties=species:S:1:pos:R:3:forces:R:3:charge:R:1 formula=N7 topology=bicyclic-3-4 n_edges=8 n_rings=2 ff_energy=323.9288 mace_energy_eV=-10429.924411 delta_E_eV_atom=0.373476100417065 sg=P1 energy=-551.6128804963189 free_energy=-551.6128804963189 dipole="0.013138093183095183 -0.1016096488604637 -0.05700293903221236" pbc="F F F"
N       15.27321524      15.29868386      15.16772936       0.00025308       0.00009967       0.00012214      -0.07755168
N       16.08465706      17.16173458      16.25874960      -0.00003873       0.00000173      -0.00001806      -0.19007729
N       15.82617136      14.23772182      14.59066113      -0.00011114       0.00005537       0.00007781      -0.09009306
N       13.85646480      13.23957607      13.93937101      -0.00004874      -0.00000384      -0.00004084       0.26756280
N       15.83341077      16.20789684      15.70732966      -0.00012516      -0.00020140      -0.00015053       0.28414899
N       15.04593397      13.37386912      14.06725108      -0.00002045       0.00002247      -0.00004211      -0.01373025
N       12.82335716      12.85836436      13.67838796       0.00009114       0.00002599       0.00005161      -0.18025951
