7
Properties=species:S:1:pos:R:3:forces:R:3:charge:R:1 formula=N7 topology=ring-4-substituted n_edges=7 n_rings=1 ff_energy=115.7849 mace_energy_eV=-10426.6442 delta_E_eV_atom=0.8420776552468396 sg=P1 energy=-548.9441611706839 free_energy=-548.9441611706839 dipole="0.009841645760144707 -0.015947366211389622 -0.059635735303437985" pbc="F F F"
N       15.65710690      16.18119099      15.26316270       0.00001853       0.00001293       0.00006794      -0.09927879
N       14.51417716      14.12120021      12.77257022      -0.00003258       0.00008622       0.00007044      -0.15955349
N       14.34696507      15.44333454      17.18148280      -0.00007474       0.00006444      -0.00003133      -0.01530255
N       14.90219384      14.85969604      13.53692377      -0.00001079      -0.00011326      -0.00010154       0.26695251
N       15.41075516      15.81688556      14.06840616       0.00002797       0.00001308      -0.00003396       0.00160061
N       14.36105174      14.48074243      16.41322655       0.00012879      -0.00003915       0.00002015      -0.03421857
N       15.47862241      15.34264737      16.27244388      -0.00005717      -0.00002427       0.00000830       0.03980028
