9
Properties=species:S:1:pos:R:3:forces:R:3:charge:R:1 formula=N9 topology=ring-3-substituted n_edges=9 n_rings=1 ff_energy=261.0888 mace_energy_eV=-13411.457845 delta_E_eV_atom=0.20069489753905145 sg=P1 energy=-708.5270427896345 free_energy=-708.5270427896345 dipole="0.04132216703393031 -0.01929576253947211 0.13332782485951852" pbc="F F F"
N       17.55644024      15.49927602      16.76103065      -0.00017463      -0.00005065      -0.00001691      -0.18003903
N       16.44387041      14.01133849      12.84332764       0.00000211       0.00005334       0.00020731       0.00788908
N       14.26749741      15.31497602      14.92504875      -0.00008121      -0.00000526      -0.00013212      -0.07495060
N       14.22205239      14.93576729      16.19690868       0.00003657      -0.00001834       0.00003725      -0.08832586
N       16.44412426      14.20098122      13.92571750       0.00000546      -0.00004681      -0.00020254      -0.01817474
N       16.45115839      15.28179396      16.65944175       0.00004715       0.00000898      -0.00000027       0.27683871
N       15.30600640      14.97583319      16.86818697       0.00007638       0.00004825       0.00000835      -0.01119716
N       12.73197715      15.46531998      13.21055068      -0.00000695      -0.00000522      -0.00003531      -0.19148328
N       13.36630119      15.34207995      14.13830562       0.00009513       0.00001571       0.00013424       0.27944287
