5
Properties=species:S:1:pos:R:3:forces:R:3:charge:R:1 formula=N5 topology=bicyclic-4-4 n_edges=6 n_rings=2 ff_energy=316.5906 mace_energy_eV=-7442.281217 delta_E_eV_atom=1.9064342542606028 sg=P1 energy=-384.8274338947302 free_energy=-384.8274338947302 dipole="9.041306772387449e-07 -8.124859042131051e-06 -2.8621537313568303e-06" pbc="F F F"
N       14.80299865      15.01503939      14.27958458      -0.00002497       0.00003130      -0.00010339       0.27548971
N       14.97742174      15.89931953      15.37639040       0.00000392       0.00014335       0.00004533      -0.18366271
N       14.00516629      14.12338478      15.04364034      -0.00001580      -0.00007595      -0.00002219      -0.18365863
N       15.99557248      14.30588303      14.57997070       0.00000728      -0.00006134      -0.00002342      -0.18365820
N       15.18244234      14.53734602      15.72041401       0.00002956      -0.00003736       0.00010368       0.27548983
