10
Properties=species:S:1:pos:R:3:forces:R:3:charge:R:1 formula=N10 topology=bicyclic-3-3-5 n_edges=12 n_rings=3 ff_energy=464.3088 mace_energy_eV=-14902.576758 delta_E_eV_atom=0.10500186980380022 sg=P1 energy=-788.8152032735853 free_energy=-788.8152032735853 dipole="0.4391344354529017 -0.28179452333197014 0.3183155550577804" pbc="F F F"
N       12.82913486      15.71563871      14.03701659       0.00010127      -0.00000619       0.00007503      -0.05474138
N       16.12798492      16.42292959      14.85575892      -0.00005822      -0.00043497      -0.00005139      -0.02860468
N       14.16810556      14.21514268      14.48719411       0.00006131       0.00011210       0.00008211       0.29139878
N       13.58607435      13.85787663      13.36130491      -0.00011129      -0.00014563      -0.00002724      -0.11627613
N       16.17410478      17.49533183      14.62368299       0.00004474       0.00042683      -0.00001093       0.02422366
N       15.70297736      13.79926559      16.07510483      -0.00017923      -0.00011817       0.00040013       0.33835208
N       12.76357823      14.79813759      13.10236177       0.00001832       0.00004848      -0.00016354      -0.05642697
N       16.36978324      13.86748785      16.96845861       0.00020153       0.00010673       0.00000474      -0.13223294
N       13.69219990      15.38106142      14.91237719      -0.00009283      -0.00001384       0.00008424      -0.15183244
N       15.09911655      13.48471329      15.08793156       0.00001441       0.00002466      -0.00039314      -0.11385999
