8
Properties=species:S:1:pos:R:3:forces:R:3:charge:R:1 formula=N8 topology=bicyclic-3-4 n_edges=9 n_rings=2 ff_energy=300.5568 mace_energy_eV=-11920.680285 delta_E_eV_atom=0.2776420928310017 sg=P1 energy=-631.3464651713664 free_energy=-631.3464651713664 dipole="-0.027187004590825528 0.006054910277677065 -0.10348472901526616" pbc="F F F"
N       14.22165731      14.92802354      16.32264338       0.00016881       0.00011229       0.00002554       0.30182682
N       13.31165948      15.12650677      13.09704297      -0.00010624       0.00012842       0.00025203      -0.01276930
N       16.68239641      14.62133790      13.01738289      -0.00001836       0.00006863       0.00003704      -0.17808778
N       14.46450330      14.96501386      12.48019523      -0.00009556      -0.00006082       0.00019346      -0.06743258
N       15.57656178      14.78971641      12.90532647       0.00017816      -0.00011506      -0.00013386       0.29422348
N       14.23442734      14.94889790      15.12729672      -0.00017943       0.00022355      -0.00034851      -0.11862556
N       13.17171398      15.12431688      14.31120898       0.00018730      -0.00019567      -0.00002717      -0.04004604
N       14.47356869      14.86932564      17.41584045      -0.00013467      -0.00016133       0.00000147      -0.17908905
