8
Properties=species:S:1:pos:R:3:forces:R:3:charge:R:1 formula=N8 topology=bicyclic-3-4 n_edges=9 n_rings=2 ff_energy=316.5833 mace_energy_eV=-11919.893876 delta_E_eV_atom=0.3759431721771307 sg=P1 energy=-628.2201976089452 free_energy=-628.2201976089452 dipole="-0.01064890523792891 -0.0886198519527262 -0.14061070221639504" pbc="F F F"
N       15.66191673      14.07704456      16.31702358       0.00021893      -0.00030640       0.00027112       0.30005581
N       15.76273850      13.02750441      16.70267408      -0.00008574      -0.00014118      -0.00003400      -0.17706228
N       15.35733611      15.21587604      16.11510289      -0.00014604       0.00032272      -0.00031088      -0.12757415
N       15.51315943      17.34631127      15.18953307       0.00017289      -0.00031792      -0.00018050      -0.21375470
N       13.94706941      16.21489494      13.81463775       0.00015082      -0.00004496       0.00027219       0.19250654
N       15.08304297      16.66777722      14.12184157      -0.00016228       0.00013535       0.00012848       0.12231695
N       15.94433804      16.04052680      15.19246525      -0.00007216       0.00037095       0.00005393       0.03309468
N       13.13384900      16.07575301      13.02801162      -0.00007642      -0.00001857      -0.00020035      -0.12958285
