9
Properties=species:S:1:pos:R:3:forces:R:3:charge:R:1 formula=N9 topology=ring-4-substituted n_edges=9 n_rings=1 ff_energy=102.7947 mace_energy_eV=-13408.62339 delta_E_eV_atom=0.5156343252217539 sg=P1 energy=-707.1283537204749 free_energy=-707.1283537204749 dipole="-0.002166208531952485 -0.001320602987647523 0.011042915755044432" pbc="F F F"
N       14.68370417      13.54749658      15.79450592      -0.00001897       0.00015163      -0.00004376      -0.12211574
N       13.77165565      14.57893149      13.81363747      -0.00002313      -0.00004637       0.00002315      -0.27820449
N       14.69250173      16.97819926      11.46690929       0.00011997       0.00023637      -0.00012943      -0.12462059
N       14.96591868      12.39156486      16.00021015       0.00008824      -0.00025893       0.00001642       0.29389530
N       14.69279525      16.25729425      12.36611410      -0.00011353      -0.00011066       0.00000187       0.16127691
N       15.12475595      11.41152523      16.52799985      -0.00002892       0.00012994       0.00001628      -0.16974970
N       14.74084606      14.23687516      14.68152051      -0.00000862       0.00005307      -0.00001779       0.27101201
N       15.65978806      15.11609030      14.24323817       0.00002013      -0.00003456      -0.00001010      -0.27821224
N       14.69581643      15.47792742      13.32763864      -0.00003518      -0.00012050       0.00014337       0.24671853
