10
Properties=species:S:1:pos:R:3:forces:R:3:charge:R:1 formula=N10 topology=bicyclic-3-4 n_edges=11 n_rings=2 ff_energy=303.9138 mace_energy_eV=-14898.276568 delta_E_eV_atom=0.5350208661477609 sg=P1 energy=-789.2330640206586 free_energy=-789.2330640206586 dipole="0.0167065022359946 -0.08894239553898842 -0.12862849792962783" pbc="F F F"
N       13.35289181      14.92188797      13.04833845       0.00015943      -0.00009229       0.00002179      -0.04901732
N       15.62161068      13.16681439      15.66806322       0.00008179      -0.00003513       0.00007324      -0.10719632
N       16.09462088      13.44429372      14.42677064       0.00001240       0.00000915       0.00014730      -0.04902617
N       14.13842948      14.05783158      13.38671847       0.00001500       0.00004909      -0.00008084       0.04853799
N       16.25687734      12.70637326      16.56853690      -0.00017930       0.00016045      -0.00024784       0.29993933
N       16.60735591      12.29053123      17.55355314       0.00013531      -0.00011886       0.00007162      -0.19225877
N       12.91078342      17.14950767      13.05958062       0.00007725      -0.00013337       0.00004478       0.29994296
N       15.37191635      13.97389768      13.60494658      -0.00016005       0.00001657       0.00002241       0.04852873
N       12.44693080      18.16831824      12.94608468       0.00001869       0.00013193      -0.00006437      -0.19225215
N       13.63291786      16.22711897      13.29227308      -0.00016053       0.00001245       0.00001191      -0.10719828
