6
Properties=species:S:1:pos:R:3:forces:R:3:charge:R:1 formula=N6 topology=ring-3-subst integrity=OK energy_eV=-8939.011051 delta_E_eV_atom=0.6543 sg=P1 energy=-470.8186707323956 free_energy=-470.8186707323956 dipole="0.016340458556975804 0.07707897863580167 -0.09865098484074049" pbc="F F F"
N        1.03793760       0.42334516      -0.35555133       0.00003473      -0.00002094       0.00014712      -0.01187810
N        0.55063148      -0.37957257       0.60814510       0.00026454       0.00008224      -0.00020548      -0.10505176
N        0.28255061       0.49121756      -1.60319186       0.00000147       0.00004918       0.00000250       0.00420776
N        0.13946995       1.44862153      -0.87794432      -0.00008174      -0.00008891      -0.00001917       0.00424789
N       -0.54840330      -0.75523484       0.89075441      -0.00021572      -0.00012157       0.00011797       0.29303908
N       -1.46218634      -1.22837685       1.33778800      -0.00000327       0.00010001      -0.00004294      -0.18456488
