6
 energy: -17.413542504142 gnorm: 0.000687671826 xtb: 6.6.1 (8d0f1dd)
N            0.11294700530298        0.00000516544243       -0.00421287631522
N           -0.98758852905504        0.74461297970372        0.00080293148674
N           -0.98758605434249       -0.74461793456828        0.00080116379788
N            1.33705245933974        0.00000575394360        0.00408135516005
N            2.43758667918637       -0.74461774740366       -0.00073549829664
N            2.43758824112919        0.74461312320710       -0.00073648340396
