8
Properties=species:S:1:pos:R:3:initial_charges:R:1:initial_magmoms:R:1:forces:R:3:charge:R:1 N8=T charge=-1 mult=2 PG=C2h |=T B3LYP/aug-cc-pVDZ=T src:=T B=T p.55=T (B3LYP/aug-cc-pVDZ)=T energy=-637.3440967495102 free_energy=-637.3440967495102 dipole="-3.755698804350178 -0.015146984694835344 -5.4617525441863533e-17" pbc="F F F"
N        0.16546915       0.47166939      -0.00000000      -1.00000000       1.00000000      -0.00017223      -0.00010591       0.00000000      -0.38777257
N        1.24530835       0.05911836      -0.00000000       0.00000000       0.00000000       0.00017246       0.00006961      -0.00000000       0.18982092
N        2.43564074      -0.03753979       0.00000000       0.00000000       0.00000000       0.00004792       0.00005207       0.00000000      -0.11831579
N        3.17680911      -1.14957688      -0.00000000       0.00000000       0.00000000      -0.00010811      -0.00002101      -0.00000000      -0.18373197
N        4.45801923      -1.07958970      -0.00000000       0.00000000       0.00000000       0.00006628       0.00002936       0.00000000      -0.18373520
N        5.07364261       0.10657090      -0.00000000       0.00000000       0.00000000      -0.00006819       0.00002474      -0.00000000      -0.11832038
N        6.24636378       0.33230423       0.00000000       0.00000000       0.00000000      -0.00013798      -0.00008837       0.00000000       0.18982545
N        7.27486203       0.85997650       0.00000000       0.00000000       0.00000000       0.00019987       0.00003952      -0.00000000      -0.38777046
