7
Properties=species:S:1:pos:R:3:forces:R:3:charge:R:1 formula=N7 topology=ring-5-substituted n_edges=7 n_rings=1 ff_energy=32.7583 mace_energy_eV=-10428.135154 delta_E_eV_atom=0.6290842260402769 sg=P1 energy=-550.0417267254132 free_energy=-550.0417267254132 dipole="-0.04450479583586496 0.14982672751623777 0.03148415384690209" pbc="F F F"
N       17.18254579      15.97970990      15.95989289       0.00022252       0.00006278       0.00011493      -0.15411288
N       14.43246210      15.41745296      14.06185604      -0.00017664       0.00007776      -0.00025551       0.25159220
N       15.50436595      13.46596447      13.95185057      -0.00002969       0.00001807       0.00003086      -0.06493606
N       16.28714172      15.70839437      15.30730873      -0.00025564       0.00000408      -0.00033385       0.25160419
N       15.20972024      16.06743212      14.79022664      -0.00000195      -0.00008407       0.00033113      -0.06506797
N       16.42118366      13.60977774      14.56750843      -0.00001162      -0.00003185       0.00002243      -0.06492464
N       13.46251905      15.39621804      13.46184950       0.00025302      -0.00004677       0.00009000      -0.15415483
