7
Properties=species:S:1:pos:R:3:forces:R:3:charge:R:1 formula=N7 topology=bicyclic-3-5 n_edges=8 n_rings=2 ff_energy=268.2416 mace_energy_eV=-10428.51804 delta_E_eV_atom=0.5743862108631674 sg=P1 energy=-551.5064871867131 free_energy=-551.5064871867131 dipole="-0.13073056753008722 -0.007335927028262012 0.004302386681752727" pbc="F F F"
N       15.59452961      14.52618542      16.14552228      -0.00040521       0.00003259      -0.00019273       0.25273137
N       14.42638053      14.60974496      15.86642232       0.00016367       0.00001006      -0.00001749      -0.03196453
N       15.43406735      15.77674719      13.46840417       0.00036806       0.00008445      -0.00010359       0.25271966
N       13.73898390      15.05127738      14.86657029       0.00005767       0.00000256       0.00003611      -0.07830626
N       14.30399737      15.56349608      13.82466184      -0.00020058      -0.00004235       0.00005276      -0.03200197
N       16.58727329      14.32794175      16.65363474       0.00020555      -0.00002454       0.00013171      -0.18162611
N       16.36204763      16.08337088      12.89581943      -0.00018916      -0.00006277       0.00009324      -0.18155217
