5
Properties=species:S:1:pos:R:3:forces:R:3:charge:R:1 formula=N5 topology=bicyclic-3-3 n_edges=6 n_rings=2 ff_energy=455.1853 mace_energy_eV=-20214.762349 delta_E_eV_atom=-2552.5897921773217 sg=P1 energy=-393.05197054462724 free_energy=-393.05197054462724 dipole="-0.028048377905168984 -0.041372445048833084 -0.02196938175227903" pbc="F F F"
N       16.68853776      12.37215467      14.45244534       0.00004814      -0.00029054       0.00001631       0.20986112
N       15.87863535      13.75674860      12.89740112       0.00007452       0.00015906      -0.00013711       0.20972343
N       15.50906284      14.52961645      12.13743426      -0.00005095      -0.00010614       0.00012092      -0.18086405
N       17.14654902      11.72902446      15.28190518      -0.00005215       0.00006622       0.00006438      -0.18085220
N       16.56784692      13.48194539      13.89869960      -0.00001956       0.00017141      -0.00006451      -0.05786829
