6
Properties=species:S:1:pos:R:3:forces:R:3:charge:R:1 energy=-473.29663887071905 free_energy=-473.29663887071905 dipole="-0.0001222264732983299 -0.00013833311564499074 1.1360097535929283e-15" pbc="F F F"
N        0.12084460      -0.37145905       0.00000000       0.00017030       0.00017499      -0.00000000      -0.19993625
N        0.86269927       0.47644854       0.00000000      -0.00037851      -0.00026650       0.00000000       0.29143943
N        1.85565797       1.13893499       0.00000000       0.00023628      -0.00031294      -0.00000000      -0.09149132
N        1.90537638       2.48164209      -0.00000000      -0.00005637       0.00033332       0.00000000      -0.09144375
N        2.89832694       3.14413264      -0.00000000       0.00002470       0.00016178      -0.00000000       0.29144803
N        3.64014806       3.99207405      -0.00000000       0.00000361      -0.00009066       0.00000000      -0.20001614
