4
Properties=species:S:1:pos:R:3:forces:R:3:charge:R:1 formula=N4 topology=bicyclic-3-3 n_edges=5 n_rings=2 ff_energy=478.6419 mace_energy_eV=-5956.744702 delta_E_eV_atom=1.176502301232631 sg=P1 energy=-311.1597191863092 free_energy=-311.1597191863092 dipole="0.0042339742696197126 0.003930156547310462 -0.01009352014084756" pbc="F F F"
N       14.93204832      15.74506162      15.00368957      -0.00005168       0.00043364      -0.00019290       0.10405813
N       15.25004979      14.26423688      14.56048806       0.00009468      -0.00024789      -0.00039688       0.10405813
N       14.05469851      14.83968262      14.58968352       0.00011374      -0.00007404       0.00032900      -0.10406581
N       15.93531233      14.99077362      15.43421730      -0.00015674      -0.00011171       0.00026078      -0.10405045
