8
Properties=species:S:1:pos:R:3:forces:R:3:charge:R:1 formula=N8 topology=ring-4-substituted n_edges=8 n_rings=1 ff_energy=113.455 mace_energy_eV=-11917.029493 delta_E_eV_atom=0.733991090384734 sg=P1 energy=-627.9432685677305 free_energy=-627.9432685677305 dipole="-0.23571146457513395 0.2566183462202126 -0.17758047154096057" pbc="F F F"
N       13.87027077      16.40464883      14.18786909      -0.00027294       0.00017814      -0.00006630       0.30236313
N       16.75621452      14.71136264      14.56612016      -0.00003400      -0.00016390       0.00001771       0.12293454
N       16.62626798      13.32300254      14.82138296       0.00010634      -0.00009558       0.00001443      -0.07061336
N       14.76049160      15.69033916      14.54365045       0.00002193      -0.00035109      -0.00027735      -0.02061885
N       15.95883964      15.54053789      14.01306024       0.00008479      -0.00017969       0.00028810      -0.07231893
N       17.30894046      13.35462697      15.92042748      -0.00017895       0.00020035      -0.00034785      -0.04564988
N       12.89573973      16.96075897      14.07899847       0.00024045       0.00009509       0.00017064      -0.14549382
N       17.26410928      14.64764383      15.88804808       0.00003238       0.00031668       0.00020063      -0.07060282
