10
Properties=species:S:1:pos:R:3:forces:R:3:charge:R:1 formula=N10 topology=bicyclic-5-8 n_edges=11 n_rings=2 ff_energy=43.6084 mace_energy_eV=-14900.355589 delta_E_eV_atom=0.3271188191033616 sg=P1 energy=-788.0510576236833 free_energy=-788.0510576236833 dipole="-0.6413268531398767 -0.6825189221350113 -0.5200091695892504" pbc="F F F"
N       15.30538096      16.45178489      16.63983170       0.00000995      -0.00004765       0.00005238      -0.06895691
N       15.51877900      13.67630658      14.05865068       0.00005908      -0.00012407      -0.00005141       0.33186408
N       12.31328561      14.24101094      15.11088299       0.00008772      -0.00000960      -0.00016311      -0.08455717
N       16.61438247      16.47282606      16.44642865      -0.00004696       0.00003983      -0.00007909      -0.06689137
N       13.33137364      14.00408986      14.72338273      -0.00011845       0.00014103       0.00009341       0.35507678
N       14.79763496      15.54442001      15.89026343       0.00001704      -0.00009241       0.00016839      -0.13785881
N       16.92909999      15.58633365      15.58232286      -0.00003844       0.00006114      -0.00010925      -0.08363505
N       15.80449194      15.00796674      15.23472899       0.00007637       0.00003204       0.00003398      -0.02199003
N       14.23818732      13.49887178      14.10805745      -0.00003646      -0.00001693       0.00000214      -0.06144745
N       16.41032117      13.24124156      13.51090964      -0.00000985       0.00001662       0.00005255      -0.16160407
