3
Properties=species:S:1:pos:R:3:initial_charges:R:1:forces:R:3:charge:R:1 N3=T charge=1 mult=1 PG=Dinfh |=T CCSD(T)/cc-pVTZ=T src:=T B=T p.9=T (CCSD(T)/cc-pVTZ)=T energy=-217.64339246406576 free_energy=-217.64339246406576 dipole="1.188700005077804 -2.0021821936014647e-16 2.964686824289262e-15" pbc="F F F"
N        0.03524320      -0.00000000       0.00000000       1.00000000       0.00000343       0.00000000      -0.00000000       0.27273332
N        1.18870000       0.00000000      -0.00000000       0.00000000       0.00000000      -0.00000000       0.00000000       0.45453336
N        2.34215680      -0.00000000       0.00000000       0.00000000      -0.00000344       0.00000000      -0.00000000       0.27273332
