10
Properties=species:S:1:pos:R:3:forces:R:3:charge:R:1 energy=-710.1591690845172 free_energy=-710.1591690845172 dipole="-0.00016369852655577553 -0.0013948555100182472 0.0006414029347837736" pbc="F F F"
N        2.96532516      -2.06610834       8.47832571      -0.00002581       0.00002413      -0.00008302       0.00010186
N       -0.82335831       5.24100309       5.80324531      -0.00000976       0.00016497      -0.00036966      -0.00004952
N       -3.36767901      -7.42144137       2.92649473       0.00008990       0.00008117      -0.00022002      -0.00003013
N        4.90911527       7.28585765      -0.58470204      -0.00038114      -0.00016406      -0.00026252      -0.00006545
N       -7.47702711      -1.89504526      -0.59844061       0.00011102      -0.00006345       0.00001070       0.00005095
N        6.18830554      -4.60457340       0.59842121      -0.00012681      -0.00001629      -0.00001072       0.00008045
N       -1.75774643       8.60779183       0.58473464       0.00028970      -0.00029704       0.00026247      -0.00001997
N        0.28118850      -8.14490985      -2.92649287      -0.00005214       0.00010934       0.00022001      -0.00004572
N        2.76080302       4.53033032      -5.80324051       0.00007198       0.00014877       0.00036971      -0.00008045
N       -3.52932754      -0.77841506      -8.47834556       0.00003307       0.00001246       0.00008305       0.00005798
