10
Properties=species:S:1:pos:R:3 pbc="F F F"
N        1.14837859       0.00000000       0.00000000
N        0.35486850       1.09217294       0.00000000
N       -0.92905780       0.67500000       0.00000000
N       -0.92905780      -0.67500000       0.00000000
N        0.35486850      -1.09217294       0.00000000
N        2.49837859      -0.00000000       0.00000000
N        3.62164649       0.71726368       0.21517910
N        4.38171473       1.78591466       0.53577440
N        4.85802663       2.99582291       0.89874687
N        5.14832955       4.25863767       1.27759130
