10
Properties=species:S:1:pos:R:3:forces:R:3:charge:R:1 energy=-789.7397289182178 free_energy=-789.7397289182178 dipole="0.61218744049476 0.13794763503257745 0.05234920093678765" pbc="F F F"
N        1.46389543       0.04038611       0.07151296      -0.00003028       0.00011993      -0.00000886       0.25480009
N        0.88420734       1.22291838       0.30184824       0.00003984      -0.00003074      -0.00001101      -0.12533748
N       -0.35794553       1.01238121       0.21037249       0.00003927      -0.00003138      -0.00001110      -0.05208784
N       -0.57286383      -0.26846107      -0.07073633      -0.00004737      -0.00002343       0.00002251      -0.05101364
N        0.53133727      -0.87499197      -0.15860489      -0.00003415      -0.00003627       0.00000656      -0.09362226
N        2.77288221      -0.25220060       0.05822054      -0.00004036      -0.00004886      -0.00001023      -0.06558537
N        3.63614622       0.58020611       0.26789374       0.00003478       0.00025254       0.00008600       0.02026117
N        3.37029925       1.84722338       0.52787709       0.00021199      -0.00001182      -0.00003321      -0.05405665
N        4.15133602       2.73035791       0.74517360      -0.00018789      -0.00015455      -0.00013708       0.31004388
N        4.62880160       3.71981946       0.97373422       0.00001417      -0.00003543       0.00009642      -0.14340189
