10
Properties=species:S:1:pos:R:3:forces:R:3:charge:R:1 energy=-710.1591690817505 free_energy=-710.1591690817505 dipole="-0.00026008810597532477 -0.0019306675494452834 -0.0003073351348700679" pbc="F F F"
N        2.96532516      -2.06610834       8.47832571      -0.00002581       0.00002413      -0.00008304       0.00005217
N       -0.82335831       5.24100309       5.80324531      -0.00000977       0.00016499      -0.00036969      -0.00002086
N       -3.36767901      -7.42144137       2.92649473       0.00008990       0.00008116      -0.00022001      -0.00001529
N        4.90911527       7.28585765      -0.58470204      -0.00038120      -0.00016405      -0.00026250      -0.00008925
N       -7.47702711      -1.89504526      -0.59844061       0.00011102      -0.00006344       0.00001072       0.00004016
N        6.18830554      -4.60457340       0.59842121      -0.00012680      -0.00001629      -0.00001071       0.00010634
N       -1.75774643       8.60779183       0.58473464       0.00028976      -0.00029709       0.00026249      -0.00009403
N        0.28118850      -8.14490985      -2.92649287      -0.00005214       0.00010933       0.00022002      -0.00005941
N        2.76080302       4.53033032      -5.80324051       0.00007199       0.00014879       0.00036971      -0.00004286
N       -3.52932754      -0.77841506      -8.47834556       0.00003305       0.00001245       0.00008302       0.00012304
