10
Properties=species:S:1:pos:R:3 pbc="F F F"
N        1.40928114       0.00000000       2.90980141
N       -1.70251416       1.55964243       2.26317888
N        0.24478833      -2.78923679       1.61655634
N        1.87654283       2.44761782       0.96993380
N       -3.16773121      -0.56032705       0.32331127
N        2.71428189      -1.72660396      -0.32331127
N       -0.80066976       2.97845160      -0.96993380
N       -1.29052018      -2.48481808      -1.61655634
N        2.16880296       0.79204336      -2.26317888
N       -1.30266276       0.53772025      -2.90980141
