11
Properties=species:S:1:pos:R:3:initial_magmoms:R:1:forces:R:3:charge:R:1 energy=-867.4415904390332 free_energy=-867.4415904390332 dipole="-0.02243287108850244 0.03400865290882002 -9.599927401902785e-06" pbc="F F F"
N        0.49585760      -0.19110415      -0.02917444       1.00000000       0.00012000      -0.00000602      -0.00003314      -0.20035982
N        1.39932114       0.48726871      -0.00572015       0.00000000      -0.00027709      -0.00039099      -0.00001898       0.28375211
N        2.13840383       1.41583770       0.12584172       0.00000000      -0.00026044       0.00044016       0.00016850      -0.05962136
N        3.43027898       1.47422063      -0.15942822       0.00000000       0.00021478      -0.00042801      -0.00020941      -0.06670244
N        4.02006818       2.55346893       0.11951719       0.00000000       0.00023472       0.00050228       0.00014954       0.02950858
N        5.24005041       2.75752644       0.00005760       0.00000000       0.00012764       0.00053801      -0.00019015       0.02661769
N        5.88615931       3.81229143      -0.11949303       0.00000000       0.00012526      -0.00065608       0.00019332       0.02960237
N        7.10771589       3.95497196       0.15952225       0.00000000      -0.00031480       0.00007916      -0.00011431      -0.06659978
N        7.64583136       5.13086697      -0.12581873       0.00000000       0.00042145      -0.00010480       0.00015287      -0.05958771
N        8.78370975       5.46813479       0.00572706       0.00000000      -0.00067714      -0.00022083      -0.00005948       0.28376595
N        9.75121426       6.05154018       0.02917458       0.00000000       0.00028561       0.00024712      -0.00003876      -0.20037558
