11
Properties=species:S:1:pos:R:3:initial_magmoms:R:1:forces:R:3:charge:R:1 energy=-867.3516880018457 free_energy=-867.3516880018457 dipole="-0.016592338341321105 0.024910720100205893 1.7683455347048679e-15" pbc="F F F"
N        0.46209174      -0.10494615      -0.00000000       1.00000000       0.00010003      -0.00023146      -0.00000000      -0.19140833
N        1.38929225       0.53935640      -0.00000000       0.00000000       0.00007547       0.00011895      -0.00000000       0.28721601
N        2.14507708       1.46601074       0.00000000       0.00000000      -0.00025580       0.00012654       0.00000000      -0.05679767
N        3.46646474       1.43241704      -0.00000000       0.00000000      -0.00001410      -0.00004085      -0.00000000      -0.04013345
N        4.05977275       2.53398675       0.00000000       0.00000000       0.00003630       0.00018285       0.00000000       0.02038311
N        5.33368303       2.61872473       0.00000000       0.00000000      -0.00005386       0.00003011       0.00000000      -0.03856979
N        5.88928739       3.76823797      -0.00000000       0.00000000       0.00013033      -0.00010010      -0.00000000       0.02038385
N        7.13289007       3.90576618       0.00000000       0.00000000       0.00002025      -0.00004273       0.00000000      -0.04010495
N        7.59679474       5.14349631      -0.00000000       0.00000000       0.00002274      -0.00009104      -0.00000000      -0.05679618
N        8.73916256       5.49692781       0.00000000       0.00000000       0.00000467       0.00006864       0.00000000       0.28721836
N        9.68401772       6.11504904       0.00000000       0.00000000      -0.00006603      -0.00002091       0.00000000      -0.19139096
