12
Properties=species:S:1:pos:R:3:forces:R:3:charge:R:1 energy=-852.1929106666611 free_energy=-852.1929106666611 dipole="0.0005789025549269969 0.0005190865027551538 -0.0004788883416865275" pbc="F F F"
N        2.39882618      -2.55188314       8.04137361      -0.00010743      -0.00001765      -0.00023406       0.00006492
N       -0.69949073       4.55485782       6.01800475       0.00007045      -0.00003390      -0.00021850       0.00002080
N       -1.98709184      -6.37632281       3.92916159      -0.00006813       0.00013306      -0.00034217      -0.00006375
N        4.46283614       7.89026243       0.95457556      -0.00037573      -0.00024902      -0.00010270       0.00004204
N       -8.15417687      -1.85685353       1.83735959       0.00026377       0.00001720      -0.00042041      -0.00000092
N        5.70167340      -3.18343524       0.93548212       0.00005643       0.00036910      -0.00018051      -0.00007300
N       -1.33110885       6.39307896      -0.93547369       0.00036906      -0.00005664       0.00018053      -0.00009140
N       -4.21216649      -7.22470297      -1.83734444       0.00009536       0.00024653       0.00042042       0.00000043
N        8.86425082       1.89685786      -0.95458564      -0.00035008      -0.00028400       0.00010272       0.00000030
N       -6.67876836       0.01232624      -3.92916215       0.00010655      -0.00010483       0.00034217      -0.00005558
N        4.13674441      -2.03063880      -6.01802671      -0.00001124       0.00007735       0.00021847       0.00005293
N       -1.71696576       3.05261746      -8.04136457      -0.00004900      -0.00009720       0.00023402       0.00010322
