12
Properties=species:S:1:pos:R:3 pbc="F F F"
N        1.41544871       0.00000000       3.24655603
N       -1.72736969       1.58241214       2.65627312
N        0.25149610      -2.86566839       2.06599020
N        1.95893778       2.55508745       1.47570729
N       -3.37681282      -0.59731064       0.88542437
N        2.97793180      -1.89431645       0.29514146
N       -0.91624185       3.40837403      -0.29514146
N       -1.58055797      -3.04326819      -0.88542437
N        3.02425124       1.10445170      -1.47570729
N       -2.65904923       1.09761687      -2.06599020
N        0.99290701      -2.12178461      -2.65627312
N        0.42362096       1.35057037      -3.24655603
