12
Properties=species:S:1:pos:R:3:forces:R:3:charge:R:1 energy=-946.7646555945922 free_energy=-946.7646555945922 dipole="3.644787498322854e-05 3.3586634692759117e-06 -5.14875738788211e-07" pbc="F F F"
N        0.51281274      -0.13923209       0.05420930       0.00007980      -0.00000817       0.00010855      -0.20253609
N        1.41755777       0.53428220       0.01495698      -0.00023846      -0.00007567      -0.00009369       0.28766608
N        2.15755368       1.46366723      -0.09838535       0.00006350       0.00015564      -0.00004717      -0.07122358
N        3.48186225       1.46531312       0.05770716       0.00025717       0.00005653      -0.00002554      -0.07006393
N        4.03471023       2.58910962      -0.03726494       0.00026879      -0.00005668      -0.00002980       0.03134059
N        5.23765770       2.83028447      -0.22357724      -0.00031123       0.00014184       0.00016032       0.02481406
N        5.94204266       3.75273743       0.22358341      -0.00018708      -0.00024367      -0.00010998       0.02481190
N        7.14497461       3.99392786       0.03726089      -0.00003457      -0.00027137       0.00002698       0.03134186
N        7.69783953       5.11770660      -0.05770419      -0.00006615       0.00027237      -0.00005319      -0.07005875
N        9.02215303       5.11931118       0.09837956       0.00013819      -0.00013334       0.00013431      -0.07122907
N        9.76217055       6.04867834      -0.01494722      -0.00000593       0.00032642       0.00000289       0.28767489
N       10.66687320       6.72224702      -0.05420987       0.00003599      -0.00016389      -0.00007368      -0.20253795
