12
Properties=species:S:1:pos:R:3:forces:R:3:charge:R:1 energy=-852.1929104732087 free_energy=-852.1929104732087 dipole="0.002361518114645621 0.0017615459490268454 0.0009594347465664566" pbc="F F F"
N        2.39883009      -2.55186606       8.04135512      -0.00010743      -0.00001768      -0.00023402       0.00009640
N       -0.69951664       4.55484063       6.01798566       0.00007042      -0.00003388      -0.00021843       0.00008943
N       -1.98707631      -6.37630971       3.92915240      -0.00006817       0.00013303      -0.00034226      -0.00006720
N        4.46285966       7.89023817       0.95460082      -0.00037568      -0.00024897      -0.00010270       0.00004438
N       -8.15419318      -1.85676838       1.83739714       0.00026380       0.00001719      -0.00042048      -0.00001231
N        5.70165161      -3.18345885       0.93548817       0.00005638       0.00036900      -0.00018049      -0.00004983
N       -1.33114672       6.39305335      -0.93549774       0.00036898      -0.00005664       0.00018045      -0.00005663
N       -4.21209836      -7.22474346      -1.83740035       0.00009538       0.00024663       0.00042051      -0.00010851
N        8.86421503       1.89687413      -0.95461557      -0.00034997      -0.00028393       0.00010268       0.00007943
N       -6.67872678       0.01233557      -3.92913808       0.00010661      -0.00010486       0.00034221      -0.00010863
N        4.13671732      -2.03063489      -6.01799769      -0.00001128       0.00007735       0.00021846       0.00004213
N       -1.71695369       3.05260377      -8.04132989      -0.00004902      -0.00009725       0.00023409       0.00005134
