16
Properties=species:S:1:pos:R:3 pbc="F F F"
N        1.42312057       0.00000000       3.83400000
N       -1.75794498       1.61042161       3.32280000
N        0.25963723      -2.95843237       2.81160000
N        2.05729617       2.68337855       2.30040000
N       -3.62122832      -0.64054430       1.78920000
N        3.27780679      -2.08507237       1.27800000
N       -1.04284849       3.87934440       0.76680000
N       -1.88124027      -3.62221367       0.25560000
N        3.83393820       1.40014808      -0.25560000
N       -3.71316017       1.53273854      -0.76680000
N        1.64655000      -3.51858171      -1.27800000
N        1.10059954       3.50888475      -1.78920000
N       -2.92551286      -1.69539450      -2.30040000
N        2.90053526      -0.63767454      -2.81160000
N       -1.37115347       1.95032471      -3.32280000
N       -0.18288621      -1.41132023      -3.83400000
