16
Properties=species:S:1:pos:R:3:forces:R:3:charge:R:1 energy=-1136.251060577235 free_energy=-1136.251060577235 dipole="0.0034176046587911318 0.008779724206351152 -0.0015975482489455426" pbc="F F F"
N        2.37411580     -17.24259521      23.04873507      -0.00000144       0.00000102      -0.00000320       0.00002463
N        4.38176015      13.02211902      16.83467261       0.00000016      -0.00000123      -0.00000213       0.00004772
N       -4.96650941     -13.48589810       9.74243762       0.00008851      -0.00004440      -0.00048654      -0.00015574
N        3.79865912      32.99221167      -0.90114923      -0.00000008      -0.00000106       0.00000010       0.00003876
N      -15.42652156     -23.15084864       4.93713745       0.00000515       0.00000462      -0.00000046      -0.00005936
N       18.51264499       5.38705774      10.03270949      -0.00000230       0.00000017      -0.00000427       0.00006776
N      -10.96318786      11.07068165       7.24582387       0.00000175      -0.00000052      -0.00000301       0.00004755
N       -3.87234254     -14.01057091       3.78031042      -0.00009198       0.00004120       0.00048416      -0.00013383
N       14.39216248       2.03969522      -3.78024297      -0.00002904       0.00009646      -0.00048393      -0.00008257
N       -9.56996031      12.29482030      -7.24573421       0.00000029      -0.00000180       0.00000301       0.00001534
N       -7.72148059     -17.66687552     -10.03270412       0.00000013       0.00000230       0.00000428      -0.00001998
N       24.94151414      12.32364707      -4.93726586      -0.00000523      -0.00000450       0.00000046       0.00010561
N      -33.20674478       0.47270569       0.90123029       0.00000106      -0.00000006      -0.00000010       0.00007532
N       14.01233474       3.19217682      -9.74252969       0.00003264      -0.00009344       0.00048631      -0.00006267
N      -13.47739770      -2.67201579     -16.83473947       0.00000120      -0.00000031       0.00000213      -0.00001492
N       16.79446234      -4.57030405     -23.04869125      -0.00000083       0.00000156       0.00000320       0.00010636
