16
Properties=species:S:1:pos:R:3:forces:R:3:charge:R:1 energy=-1262.3679328357855 free_energy=-1262.3679328357855 dipole="-0.0003076244377656057 -0.00022742972136623445 1.0830231775070813e-05" pbc="F F F"
N        0.62686600      -0.06988628      -0.05560318       0.00004784       0.00006034      -0.00009144      -0.20689804
N        1.53155510       0.60403810      -0.01197064      -0.00020597      -0.00018094       0.00001380       0.28646284
N        2.28509128       1.51222747       0.16281412       0.00007264       0.00011119       0.00010993      -0.07501283
N        3.58585654       1.55202242      -0.13909261       0.00011199       0.00007410       0.00003633      -0.07431792
N        4.15589958       2.65315422       0.04792738       0.00019423      -0.00006218      -0.00000424       0.04521253
N        5.34281748       2.93023767       0.19084546      -0.00024574      -0.00007287      -0.00001243       0.04301156
N        6.04126629       3.85292404      -0.26995591      -0.00025313       0.00008996      -0.00012633      -0.00852160
N        7.27415213       4.03956189      -0.02136010       0.00024785      -0.00032798       0.00012754      -0.00992048
N        7.80949329       5.17654614       0.02132603       0.00001856       0.00031650      -0.00002833      -0.00989381
N        9.04235092       5.36323844       0.26993918       0.00009290       0.00011360      -0.00005692      -0.00848367
N        9.74079854       6.28593252      -0.19085080       0.00021616      -0.00010498       0.00005656       0.04299712
N       10.92772791       6.56301371      -0.04790263      -0.00030097       0.00009891       0.00002139       0.04517109
N       11.49769334       7.66421827       0.13900916      -0.00002869      -0.00013985      -0.00002644      -0.07434778
N       12.79849089       7.70401066      -0.16276777       0.00007132       0.00005943      -0.00000558      -0.07500363
N       13.55199343       8.61223122       0.01200452      -0.00012571      -0.00001929      -0.00011489       0.28645980
N       14.45665640       9.28618942       0.05565275       0.00008672      -0.00001594       0.00010105      -0.20691519
