18
Properties=species:S:1:pos:R:3:forces:R:3:charge:R:1 energy=-1415.361974300076 free_energy=-1415.361974300076 dipole="0.32107260314410757 -0.49990893076031745 0.03365058426187839" pbc="F F F"
N       -0.33757450      -1.81981478      -0.34309220       0.00020050       0.00011804       0.00001596      -0.04082567
N        0.61829527      -1.29189557       0.40763399       0.00005161      -0.00005462      -0.00013699      -0.02865805
N       -0.43521997       0.09857566       2.85135174       0.00006724      -0.00003604       0.00008053       0.00760969
N       -1.16911009      -1.14507164       2.68764380      -0.00015655      -0.00003714      -0.00013250      -0.02667299
N       -1.57830143       2.70773691      -0.45971934      -0.00002927       0.00002314       0.00008739      -0.16021948
N       -0.92150312       1.99414164      -1.30996822       0.00009050      -0.00007356       0.00000849      -0.00462235
N       -0.45325712       1.05315938       1.91975823       0.00005611       0.00001937      -0.00018484       0.07849774
N       -0.67680182       0.96765595       0.47420408      -0.00002313       0.00007129       0.00004105       0.04312607
N        1.81214268      -0.82816671      -1.29994888      -0.00022481      -0.00004412      -0.00019952       0.22849223
N        0.76980798      -1.36035708      -2.12047655       0.00011456       0.00008269       0.00010089       0.22350336
N       -1.37514453       2.08012490       1.96981262      -0.00004426       0.00006855      -0.00004463      -0.22298792
N       -1.40140961       2.08002383       0.66902375      -0.00006828      -0.00003612      -0.00007196       0.31687095
N        2.48053730      -0.57032891      -2.40251601       0.00023626       0.00007830       0.00015559      -0.09895665
N        1.51309090      -1.06258358      -3.16347213      -0.00013796      -0.00011918      -0.00016591      -0.09279908
N        0.04785880      -1.19851279       2.57002895       0.00016550      -0.00000919       0.00004863       0.04057570
N        1.70936667      -0.81280170      -0.01849593      -0.00018713      -0.00009659       0.00016723      -0.04210333
N       -0.28845346      -1.88090535      -1.60276459      -0.00008789       0.00004046       0.00009348      -0.03190232
N       -0.31432396       0.98901985      -0.82900332      -0.00002300       0.00000473       0.00013712      -0.18892787
