18
Properties=species:S:1:pos:R:3 pbc="F F F"
N       -0.06623392       0.31163387      -1.67605171
N        0.51664651      -0.71791209      -0.96169427
N       -0.71314573       0.10921180       2.68322931
N        0.36330541      -0.83991125       1.77350226
N       -2.59238088       3.29124352       0.83911516
N       -2.09747937       2.87676985      -0.32707674
N       -0.69823644       0.98962498       2.44064607
N       -1.27637357       1.79254191       1.12679558
N        1.93054058      -2.46552086      -1.49295056
N        1.83393295      -2.06790836      -2.85462343
N       -1.52391544       1.36137376       2.79967922
N       -2.08731213       2.44566321       1.87935810
N        2.71391038      -3.33551232      -2.33855634
N        2.63744731      -3.02991059      -3.34053620
N        0.25128469      -0.04620703       2.77531842
N        1.07003140      -1.58127471       0.00196916
N        0.85181559      -0.75833388      -2.73995738
N       -1.11383735       1.66442820      -0.58816665
