18
Properties=species:S:1:pos:R:3:forces:R:3:charge:R:1 energy=-1420.3576003478079 free_energy=-1420.3576003478079 dipole="-0.0004146810632791206 0.00021739516649707443 0.08589735977781464" pbc="F F F"
N        0.67408590      -0.00173614      -0.26813856      -0.00080959      -0.00051398      -0.00007486      -0.20971367
N        1.58837412       0.64868807      -0.14710826       0.00098191       0.00070140       0.00025032       0.28743857
N        2.40134931       1.43918364       0.22184404       0.00004304      -0.00026783      -0.00025408      -0.08281947
N        3.59643981       1.68402180      -0.33653791      -0.00010108       0.00032279       0.00029027      -0.07830157
N        4.24584380       2.63316785       0.14345954       0.00024915      -0.00018876      -0.00022494       0.07046650
N        5.40663810       2.96309863       0.18549089      -0.00029055      -0.00000947      -0.00009485       0.07016108
N        6.07018127       3.94783992      -0.19497110      -0.00005292      -0.00011711       0.00011566      -0.07111168
N        7.25526339       4.13743706       0.39189155       0.00015623       0.00045883      -0.00029603      -0.07255003
N        7.94219190       5.10157499       0.00464599      -0.00004196      -0.00033936       0.00025455       0.08655760
N        9.09362687       5.43071188       0.00682146      -0.00042951      -0.00064556      -0.00034799       0.08648571
N        9.77785043       6.39901602       0.38842194       0.00000252       0.00067880       0.00053227      -0.07266118
N       10.96693120       6.58252265      -0.19227775       0.00019187      -0.00037356      -0.00032698      -0.07115169
N       11.62773974       7.57133961       0.18232962      -0.00024031       0.00027698       0.00017771       0.07010968
N       12.78875597       7.90102413       0.14495523       0.00044740       0.00012124       0.00005354       0.07044125
N       13.44140302       8.84532305      -0.34016622      -0.00022499      -0.00010440      -0.00009223      -0.07828702
N       14.63243609       9.09617805       0.22416110      -0.00016865      -0.00021749       0.00025582      -0.08284977
N       15.44780504       9.88320207      -0.14691467       0.00026817       0.00025902      -0.00013218       0.28743085
N       16.36276206      10.53269840      -0.26792255       0.00001928      -0.00004156      -0.00008601      -0.20964517
