18
Properties=species:S:1:pos:R:3:forces:R:3:charge:R:1 energy=-1278.2848116896644 free_energy=-1278.2848116896644 dipole="-0.003059070809867035 0.00019666248035176003 -0.0014192294275709024" pbc="F F F"
N        5.63215691       0.90497370      18.44599913      -0.00006659       0.00004010      -0.00006969       0.00003347
N        0.41825177       4.02209432      13.60096587       0.00006969      -0.00004065       0.00005133       0.00010734
N       -3.22220631     -17.08525470       6.19150541      -0.00003253       0.00007017      -0.00005634       0.00004413
N        2.85880109      19.59552077       2.47263858      -0.00013978      -0.00001946      -0.00014955      -0.00000447
N       -9.69984557     -11.84125844       4.26814850       0.00015990      -0.00001938      -0.00009642       0.00000143
N       11.23106223       1.42054901       5.40620994      -0.00008515       0.00019137      -0.00043501      -0.00011243
N       -6.69448840      10.74803752       0.58150677      -0.00005033      -0.00011754      -0.00001741       0.00004465
N       -4.41689307     -11.38430075      -0.70189047      -0.00003518      -0.00003815       0.00013502      -0.00000191
N       10.30087895       3.81388330      -0.15210276       0.00000476      -0.00006227       0.00042484      -0.00017951
N      -10.14264565       4.23973885       0.15219171      -0.00000635      -0.00006257      -0.00042329      -0.00008453
N        3.94272249     -11.56177744       0.69830106       0.00003418      -0.00003954      -0.00013576      -0.00004690
N        7.13518317      10.46014104      -0.58003813       0.00004550      -0.00012007       0.00001744       0.00000608
N      -11.16113225       1.87778298      -5.40715139       0.00009190       0.00018767       0.00043344      -0.00005757
N        9.20233252     -12.22745770      -4.26517534      -0.00016120      -0.00001281       0.00009689      -0.00003427
N       -2.04414308      19.69948697      -2.47565980       0.00013886      -0.00002534       0.00014955       0.00004857
N        2.51001889     -17.19567752      -6.18964348       0.00003544       0.00006892       0.00005662       0.00005284
N       -0.24945963       4.03598412     -13.60029016      -0.00007114      -0.00003775      -0.00005119       0.00004219
N       -5.58710641       1.13012798     -18.44551543       0.00006802       0.00003731       0.00006955       0.00014089
