18
Properties=species:S:1:pos:R:3 pbc="F F F"
N        1.42566869       0.00000000       4.09669385
N       -1.76801925       1.61965046       3.61472987
N        0.26229480      -2.98871394       3.13276588
N        2.08905345       2.72480029       2.65080190
N       -3.69911310      -0.65432102       2.16883792
N        3.37184379      -2.14489101       1.68687394
N       -1.08176287       4.02410397       1.20490996
N       -1.97130214      -3.79562231       0.72294597
N        4.06817867       1.48569232       0.24098199
N       -4.00331909       1.65251192      -0.24098199
N        1.81279189      -3.87383097      -0.72294597
N        1.24710634       3.97597151      -1.20490996
N       -3.45758665      -2.00374214      -1.68687394
N        3.66891914      -0.80660158      -2.16883792
N       -1.97468669       2.80878861      -2.65080190
N       -0.38555798      -2.97532429      -3.13276588
N        1.83342989       1.54521665      -3.61472987
N       -1.42445124       0.05890553      -4.09669385
