18
Properties=species:S:1:pos:R:3:forces:R:3:charge:R:1 energy=-1415.3619742948235 free_energy=-1415.3619742948235 dipole="0.321081703036625 -0.49991465533933443 0.03344308763208153" pbc="F F F"
N       -0.33757450      -1.81981478      -0.34309220       0.00012010       0.00004892      -0.00000140      -0.04084000
N        0.61829527      -1.29189557       0.40763399       0.00001383      -0.00003854      -0.00008586      -0.02869201
N       -0.43521997       0.09857566       2.85135174      -0.00000209      -0.00005197       0.00018624       0.00759726
N       -1.16911009      -1.14507164       2.68764380      -0.00003783      -0.00002711      -0.00007771      -0.02662967
N       -1.57830143       2.70773691      -0.45971934       0.00000878      -0.00004102       0.00018877      -0.16020964
N       -0.92150312       1.99414164      -1.30996822       0.00008790      -0.00011652       0.00003732      -0.00461936
N       -0.45325712       1.05315938       1.91975823       0.00022313      -0.00003663      -0.00028124       0.07848301
N       -0.67680182       0.96765595       0.47420408      -0.00003054       0.00021283      -0.00008680       0.04314167
N        1.81214268      -0.82816671      -1.29994888      -0.00019865      -0.00001483      -0.00010499       0.22849797
N        0.76980798      -1.36035708      -2.12047655       0.00004919       0.00006819       0.00006810       0.22351187
N       -1.37514453       2.08012490       1.96981262      -0.00015857       0.00017621       0.00004226      -0.22302487
N       -1.40140961       2.08002383       0.66902375      -0.00002913      -0.00007122      -0.00031800       0.31688022
N        2.48053730      -0.57032891      -2.40251601       0.00015821       0.00003386       0.00013984      -0.09894669
N        1.51309090      -1.06258358      -3.16347213      -0.00013122      -0.00010526      -0.00005257      -0.09278041
N        0.04785880      -1.19851279       2.57002895       0.00007701      -0.00009731       0.00004224       0.04054883
N        1.70936667      -0.81280170      -0.01849593      -0.00003862      -0.00002469       0.00002494      -0.04210626
N       -0.28845346      -1.88090535      -1.60276459       0.00000358       0.00003578       0.00000165      -0.03189741
N       -0.31432396       0.98901985      -0.82900332      -0.00011507       0.00004932       0.00027722      -0.18891451
