20
Properties=species:S:1:pos:R:3:forces:R:3:charge:R:1 energy=-1420.3172116891076 free_energy=-1420.3172116891076 dipole="0.004816109783993927 0.004522380179829138 0.00021897275800011694" pbc="F F F"
N        2.88136817      -6.80562098      16.80065317      -0.00000465       0.00000142      -0.00001775       0.00017101
N        1.21894757       5.85127712      12.30200526       0.00000385      -0.00000651      -0.00001853       0.00010132
N       -1.29776715     -11.74613664       7.23455585      -0.00017428       0.00006622      -0.00045353      -0.00008655
N        2.11611786      21.71781385       2.11787981       0.00000049      -0.00002012      -0.00000521       0.00017693
N       -9.57096332     -13.93124596       4.77790111       0.00013190       0.00007285      -0.00005604       0.00005593
N       11.11505780       2.33869478       6.34710604      -0.00004982       0.00015029      -0.00043690      -0.00006114
N       -6.85694264       8.94934516       3.13352510      -0.00011724      -0.00020348      -0.00013229      -0.00001550
N       -3.41035547     -10.93095464       1.49880103       0.00011728      -0.00007773       0.00044708      -0.00016103
N       10.62249001       4.38240750       0.55414220       0.00001097      -0.00014086       0.00041541      -0.00010895
N      -10.23396555       4.10347372       0.04525883       0.00013787       0.00010410       0.00008827      -0.00008183
N        4.57183020     -10.03357650      -0.04528191       0.00009761       0.00014251      -0.00008826      -0.00004118
N        3.88702816      10.81357889      -0.55416607      -0.00014123       0.00000445      -0.00041544      -0.00009336
N      -10.76180597      -3.91160878      -1.49870514      -0.00008306       0.00011357      -0.00044705      -0.00016633
N        9.25653008      -6.43622178      -3.13357949      -0.00019781      -0.00012649       0.00013227      -0.00001647
N        1.82280346      11.21116957      -6.34705441       0.00015244      -0.00004282       0.00043694      -0.00006187
N      -13.47424315     -10.20428811      -4.77797688       0.00006668       0.00013513       0.00005604       0.00003207
N       21.59693318       3.11704567      -2.11786464      -0.00002013      -0.00000044       0.00000521       0.00016534
N      -11.67374086      -1.83891565      -7.23452787       0.00007420      -0.00017102       0.00045350      -0.00007469
N        5.78871014       1.48796210     -12.30196660      -0.00000668       0.00000354       0.00001853       0.00011457
N       -6.93141785       2.56395242     -16.80070538       0.00000163      -0.00000458       0.00001776       0.00015173
