20
Properties=species:S:1:pos:R:3 pbc="F F F"
N        1.42770390       0.00000000       4.34369621
N       -1.77603752       1.62699585       3.88646503
N        0.26440162      -3.01272006       3.42923385
N        2.11411583       2.75748973       2.97200267
N       -3.76025961      -0.66513698       2.51477149
N        3.44522584      -2.19157067       2.05754031
N       -1.11191424       4.13626554       1.60030913
N       -2.04049157      -3.92884234       1.14307795
N        4.24627768       1.55073380       0.68584677
N       -4.22110979       1.74241276       0.22861559
N        1.93553208      -4.13611964      -0.22861559
N        1.35293685       4.31337586      -0.68584677
N       -3.83039546      -2.21979247      -1.14307795
N        4.18321144      -0.91966730      -1.60030913
N       -2.34837136       3.34031661      -2.05754031
N       -0.49073519      -3.78696957      -2.51477149
N        2.65689233       2.23923167      -2.97200267
N       -3.02171740       0.12495750      -3.42923385
N        1.70729695      -1.69898849      -3.88646503
N       -0.06594771       1.42617998      -4.34369621
