20
Properties=species:S:1:pos:R:3:forces:R:3:charge:R:1 energy=-1573.2908554526412 free_energy=-1573.2908554526412 dipole="1.085016285469441e-06 -4.837129084655601e-13 -7.408379651276806e-07" pbc="F F F"
N       -1.15456388      -1.15456388      -1.15456388       0.00000759       0.00000405       0.00000442      -0.00000054
N       -1.15456388      -1.15456388       1.15456388       0.00000343       0.00000849      -0.00000731      -0.00000044
N       -1.15456388       1.15456388      -1.15456388       0.00000759      -0.00000405       0.00000442      -0.00000054
N       -1.15456388       1.15456388       1.15456388       0.00000343      -0.00000849      -0.00000731      -0.00000044
N        1.15456388      -1.15456388      -1.15456388      -0.00001119       0.00000102      -0.00000118      -0.00000207
N        1.15456388      -1.15456388       1.15456388       0.00000405       0.00000376      -0.00001381      -0.00000128
N        1.15456388       1.15456388      -1.15456388      -0.00001119      -0.00000102      -0.00000118      -0.00000207
N        1.15456388       1.15456388       1.15456388       0.00000405      -0.00000376      -0.00001381      -0.00000128
N        0.00000000      -0.71355972      -1.86812359       0.00000007       0.00000710       0.00000776       0.00000065
N       -0.71355972      -1.86812359       0.00000000       0.00000713       0.00000384      -0.00000364      -0.00000039
N       -1.86812359       0.00000000      -0.71355972       0.00000764       0.00000000       0.00000696       0.00000006
N        0.00000000      -0.71355972       1.86812359       0.00000933       0.00000992      -0.00001080       0.00000019
N       -0.71355972       1.86812359      -0.00000000       0.00000713      -0.00000384      -0.00000364      -0.00000039
N        1.86812359      -0.00000000      -0.71355972      -0.00001271      -0.00000000      -0.00001129       0.00000299
N        0.00000000       0.71355972      -1.86812359       0.00000007      -0.00000710       0.00000776       0.00000065
N        0.71355972      -1.86812359      -0.00000000      -0.00000986       0.00000383       0.00000368       0.00000172
N       -1.86812359      -0.00000000       0.71355972       0.00000560      -0.00000000      -0.00000635       0.00000107
N        0.00000000       0.71355972       1.86812359       0.00000933      -0.00000992      -0.00001080       0.00000019
N        0.71355972       1.86812359      -0.00000000      -0.00000986      -0.00000383       0.00000368       0.00000172
N        1.86812359       0.00000000       0.71355972      -0.00002164      -0.00000000       0.00005244       0.00000020
