20
Properties=species:S:1:pos:R:3:forces:R:3:charge:R:1 energy=-1573.2908554528124 free_energy=-1573.2908554528124 dipole="1.9652032993545105e-14 2.1779803651495405e-14 9.561639371298852e-15" pbc="F F F"
N       -1.15456388      -1.15456388      -1.15456388      -0.00000197      -0.00000197      -0.00000197      -0.00000000
N       -1.15456388      -1.15456388       1.15456388      -0.00000197      -0.00000197       0.00000197      -0.00000000
N       -1.15456388       1.15456388      -1.15456388      -0.00000197       0.00000197      -0.00000197      -0.00000000
N       -1.15456388       1.15456388       1.15456388      -0.00000197       0.00000197       0.00000197       0.00000000
N        1.15456388      -1.15456388      -1.15456388       0.00000197      -0.00000197      -0.00000197      -0.00000000
N        1.15456388      -1.15456388       1.15456388       0.00000197      -0.00000197       0.00000197       0.00000000
N        1.15456388       1.15456388      -1.15456388       0.00000197       0.00000197      -0.00000197       0.00000000
N        1.15456388       1.15456388       1.15456388       0.00000197       0.00000197       0.00000197       0.00000000
N        0.00000000      -0.71355972      -1.86812359      -0.00000000      -0.00000122      -0.00000319       0.00000000
N       -0.71355972      -1.86812359       0.00000000      -0.00000122      -0.00000319      -0.00000000      -0.00000000
N       -1.86812359       0.00000000      -0.71355972      -0.00000319      -0.00000000      -0.00000122      -0.00000000
N        0.00000000      -0.71355972       1.86812359      -0.00000000      -0.00000122       0.00000319      -0.00000000
N       -0.71355972       1.86812359      -0.00000000      -0.00000122       0.00000319       0.00000000      -0.00000000
N        1.86812359      -0.00000000      -0.71355972       0.00000319       0.00000000      -0.00000122      -0.00000000
N        0.00000000       0.71355972      -1.86812359       0.00000000       0.00000122      -0.00000319      -0.00000000
N        0.71355972      -1.86812359      -0.00000000       0.00000122      -0.00000319       0.00000000      -0.00000000
N       -1.86812359      -0.00000000       0.71355972      -0.00000319       0.00000000       0.00000122       0.00000000
N        0.00000000       0.71355972       1.86812359      -0.00000000       0.00000122       0.00000319       0.00000000
N        0.71355972       1.86812359      -0.00000000       0.00000122       0.00000319      -0.00000000       0.00000000
N        1.86812359       0.00000000       0.71355972       0.00000319      -0.00000000       0.00000122      -0.00000000
