20
Properties=species:S:1:pos:R:3:forces:R:3:charge:R:1 energy=-1578.0490188296642 free_energy=-1578.0490188296642 dipole="-0.058977722860135834 -0.04373392113523135 -0.03509710480085745" pbc="F F F"
N        0.73361280       0.02897854       0.31278527       0.00026337       0.00019162       0.00000651      -0.20957705
N        1.64233266       0.68596920       0.18453843      -0.00045351      -0.00029017       0.00005525       0.28713528
N        2.43356426       1.50391857      -0.17179187       0.00035100       0.00019088      -0.00004692      -0.08187628
N        3.66521082       1.70045188       0.32047329      -0.00013649       0.00005014      -0.00008559      -0.07792980
N        4.28594324       2.68679908      -0.12340312      -0.00088016      -0.00035316       0.00017229       0.06801847
N        5.44768244       3.01097724      -0.21125325       0.00084564       0.00001594      -0.00017676       0.06697491
N        6.14192978       3.95965466       0.20546667      -0.00029286       0.00015307       0.00038252      -0.06618261
N        7.28701909       4.19964744      -0.42816667      -0.00032477      -0.00120705      -0.00091037      -0.06778696
N        8.00157848       5.13462330      -0.01610031       0.00117339       0.00142633       0.00064568       0.08165405
N        9.16282248       5.44053175      -0.06957697      -0.00010307       0.00082603      -0.00040175       0.07780317
N        9.81636883       6.46029676      -0.37142257      -0.00026555      -0.00105409       0.00047251      -0.05725479
N       11.06710602       6.55725158       0.03248031      -0.00021543      -0.00018310      -0.00007079      -0.05613750
N       11.65810910       7.65269947      -0.12195846      -0.00028291       0.00032308      -0.00008369       0.03846315
N       12.86992854       7.88468048      -0.19015056       0.00015547      -0.00009909       0.00002099       0.02941934
N       13.50596028       8.89509032       0.17705771       0.00099218      -0.00007918       0.00001333       0.01176074
N       14.73061983       9.11268746       0.08699181      -0.00071572       0.00076474      -0.00005921       0.02294505
N       15.27761120      10.24150981      -0.01995870       0.00052906      -0.00085797       0.00016117      -0.07333474
N       16.59030805      10.26432462       0.20612573      -0.00035885       0.00052688      -0.00009549      -0.07045231
N       17.32733042      11.19721804       0.10398380      -0.00103038      -0.00087825       0.00003185       0.28457059
N       18.22951170      11.87677888       0.09372977       0.00074960       0.00053334      -0.00003153      -0.20821271
