20
Properties=species:S:1:pos:R:3 pbc="F F F"
N       -1.20705336      -1.20705336      -1.20705336
N       -1.20705336      -1.20705336       1.20705336
N       -1.20705336       1.20705336      -1.20705336
N       -1.20705336       1.20705336       1.20705336
N        1.20705336      -1.20705336      -1.20705336
N        1.20705336      -1.20705336       1.20705336
N        1.20705336       1.20705336      -1.20705336
N        1.20705336       1.20705336       1.20705336
N        0.00000000      -0.74600000      -1.95305336
N       -0.74600000      -1.95305336       0.00000000
N       -1.95305336       0.00000000      -0.74600000
N        0.00000000      -0.74600000       1.95305336
N       -0.74600000       1.95305336       0.00000000
N        1.95305336       0.00000000      -0.74600000
N        0.00000000       0.74600000      -1.95305336
N        0.74600000      -1.95305336       0.00000000
N       -1.95305336       0.00000000       0.74600000
N        0.00000000       0.74600000       1.95305336
N        0.74600000       1.95305336       0.00000000
N        1.95305336       0.00000000       0.74600000
