3
Properties=species:S:1:pos:R:3:initial_charges:R:1:initial_magmoms:R:1:forces:R:3:charge:R:1 energy=-217.57173537511045 free_energy=-217.57173537511045 dipole="1.192799997871311 2.086767755898892e-15 3.3137018092746923e-15" pbc="F F F"
N        0.03935005      -0.00000000      -0.00000000       1.00000000       2.00000000      -0.00002581      -0.00000000       0.00000000       0.27273072
N        1.19280000       0.00000000       0.00000000       0.00000000       0.00000000      -0.00000000       0.00000000      -0.00000000       0.45453857
N        2.34624995      -0.00000000      -0.00000000       0.00000000       0.00000000       0.00002582      -0.00000000       0.00000000       0.27273071
