3
Properties=species:S:1:pos:R:3:initial_charges:R:1:initial_magmoms:R:1:forces:R:3:charge:R:1 energy=-217.57173537531824 free_energy=-217.57173537531824 dipole="1.19279769679207 -2.6339806527144346e-13 -3.639147507071213e-07" pbc="F F F"
N        0.03935005      -0.00000000      -0.00000000       1.00000000       2.00000000      -0.00008900      -0.00000000      -0.00001333       0.27273131
N        1.19280000       0.00000000       0.00000000       0.00000000       0.00000000      -0.00000101       0.00000000       0.00001880       0.45453950
N        2.34624995      -0.00000000      -0.00000000       0.00000000       0.00000000       0.00009001      -0.00000000      -0.00000548       0.27272919
