4
Properties=species:S:1:pos:R:3:initial_charges:R:1:initial_magmoms:R:1:forces:R:3:charge:R:1 energy=-297.9880340722538 free_energy=-297.9880340722538 dipole="2.1120079647376717 -4.2851061613187687e-17 -1.4016482558876418e-15" pbc="F F F"
N       -0.03716881      -0.00000000       0.00000000       1.00000000       1.00000000      -0.00005712       0.00000000       0.00000000       0.28301064
N        1.04388323       0.00000000      -0.00000000       0.00000000       0.00000000       0.00009425      -0.00000000      -0.00000000       0.21697504
N        3.18001640      -0.00000000      -0.00000000       0.00000000       0.00000000       0.00013846       0.00000000      -0.00000000       0.21697966
N        4.26106918       0.00000000       0.00000000       0.00000000       0.00000000      -0.00017558      -0.00000000       0.00000000       0.28303466
