4
Properties=species:S:1:pos:R:3:initial_magmoms:R:1:forces:R:3:charge:R:1 energy=-313.11427402630073 free_energy=-313.11427402630073 dipole="3.6832471891706086e-05 1.1821883201859303e-05 -2.2791079006249085e-06" pbc="F F F"
N        0.16922356      -0.37180908      -0.00000000       2.00000000      -0.00004310      -0.00013665      -0.00000656      -0.19329637
N        0.96515578       0.47821439       0.00000000       0.00000000       0.00007949       0.00019295       0.00000429       0.19328892
N        1.93547459       1.15803542       0.00000000       0.00000000       0.00009541       0.00014177       0.00000628       0.19327997
N        2.73136488       2.00810480      -0.00000000       0.00000000      -0.00013180      -0.00019807      -0.00000400      -0.19327252
