4
Properties=species:S:1:pos:R:3:initial_magmoms:R:1:forces:R:3:charge:R:1 energy=-313.11427402094256 free_energy=-313.11427402094256 dipole="8.797516069314021e-05 4.392451083390103e-05 6.857221116538798e-16" pbc="F F F"
N        0.11493817      -0.10915202      -0.00000000       2.00000000      -0.00013419      -0.00002831      -0.00000000      -0.19332542
N        1.19434015       0.32782038       0.00000000       0.00000000       0.00008669      -0.00000213       0.00000000       0.19329812
N        2.17760121       0.98878138       0.00000000       0.00000000       0.00027122       0.00013531      -0.00000000       0.19329258
N        3.25700320       1.42575240      -0.00000000       0.00000000      -0.00022372      -0.00010487       0.00000000      -0.19326529
