4
Properties=species:S:1:pos:R:3:initial_magmoms:R:1:forces:R:3:charge:R:1 energy=-313.11427402924824 free_energy=-313.11427402924824 dipole="5.269176999963547e-06 -1.6510026204633447e-05 2.2490655070846857e-15" pbc="F F F"
N        0.16922356      -0.37180908      -0.00000000       2.00000000      -0.00000435      -0.00008771       0.00000000      -0.19329004
N        0.96515578       0.47821439       0.00000000       0.00000000       0.00007790       0.00015906      -0.00000000       0.19329440
N        1.93547459       1.15803542       0.00000000       0.00000000      -0.00000215       0.00008308      -0.00000000       0.19328716
N        2.73136488       2.00810480      -0.00000000       0.00000000      -0.00007140      -0.00015443       0.00000000      -0.19329152
