4
Properties=species:S:1:pos:R:3:initial_magmoms:R:1:forces:R:3:charge:R:1 energy=-313.11427403043507 free_energy=-313.11427403043507 dipole="8.699191622124839e-06 4.273897751796108e-06 -1.9073079357340985e-06" pbc="F F F"
N        0.11493817      -0.10915202      -0.00000000       2.00000000       0.00001119       0.00000133      -0.00000749      -0.19328955
N        1.19434015       0.32782038       0.00000000       0.00000000      -0.00018058      -0.00010631       0.00000465       0.19328801
N        2.17760121       0.98878138       0.00000000       0.00000000       0.00014339       0.00008691       0.00000643       0.19328423
N        3.25700320       1.42575240      -0.00000000       0.00000000       0.00002599       0.00001807      -0.00000360      -0.19328269
