4
Properties=species:S:1:pos:R:3:forces:R:3:charge:R:1 energy=-310.67632915341017 free_energy=-310.67632915341017 dipole="2.1719158081055153e-10 1.8103609951167227e-10 -5.886622504411292e-07" pbc="F F F"
N        0.03296669       0.01814907      -0.00000000      -0.00003365      -0.00002264       0.00000000      -0.00000000
N        1.50903331       0.01814907       0.00000000       0.00003365      -0.00002264      -0.00000000       0.00000000
N        1.50903331       1.26885093       0.00000000       0.00003365       0.00002264       0.00000000      -0.00000000
N        0.03296669       1.26885093       0.00000000      -0.00003365       0.00002264      -0.00000000       0.00000000
