4
Properties=species:S:1:pos:R:3:initial_magmoms:R:1:forces:R:3:charge:R:1 energy=-309.2610174578987 free_energy=-309.2610174578987 dipole="1.7945444937291826e-05 -3.871624536252562e-08 -0.07208398766109571" pbc="F F F"
N        0.99699074      -0.00000028       0.31271966       2.00000000       0.00001760       0.00000358       0.00000570      -0.05836563
N        0.00000325       0.73280216      -0.31270929       0.00000000       0.00000142       0.00005008      -0.00000389       0.05837402
N       -0.99699719      -0.00000030       0.31269973       0.00000000      -0.00002138       0.00000427       0.00000889      -0.05838249
N        0.00000320      -0.73280158      -0.31271011       0.00000000       0.00000236      -0.00005793      -0.00001070       0.05837410
