4
Properties=species:S:1:pos:R:3:forces:R:3:charge:R:1 energy=-310.6990663512314 free_energy=-310.6990663512314 dipole="2.0452193312019507e-06 -2.9604773997233133e-05 -4.034083355233873e-06" pbc="F F F"
N        0.06252386       0.01130641      -0.08241652       0.00010694       0.00000326       0.00000684       0.00000105
N        1.47935324       0.01123142       0.08241757      -0.00006123       0.00000994      -0.00005974       0.00002254
N        1.47942508       1.27565715      -0.08254604      -0.00008256      -0.00005025       0.00004688      -0.00002060
N        0.06262080       1.27573241       0.08254497       0.00003685       0.00003704       0.00000601      -0.00000298
