4
Properties=species:S:1:pos:R:3:initial_magmoms:R:1:forces:R:3:charge:R:1 energy=-309.26101745720877 free_energy=-309.26101745720877 dipole="2.030429010720425e-05 -9.11396221942252e-06 -0.07208547339761767" pbc="F F F"
N        0.99699074      -0.00000028       0.31271966       2.00000000       0.00006462      -0.00001886       0.00001939      -0.05836533
N        0.00000325       0.73280216      -0.31270929       0.00000000       0.00000392       0.00017467      -0.00005845       0.05836975
N       -0.99699719      -0.00000030       0.31269973       0.00000000      -0.00007334      -0.00001821       0.00002608      -0.05838449
N        0.00000320      -0.73280158      -0.31271011       0.00000000       0.00000480      -0.00013760       0.00001297       0.05838008
