4
Properties=species:S:1:pos:R:3:forces:R:3:charge:R:1 energy=-312.5045819693431 free_energy=-312.5045819693431 dipole="2.1180494203170038e-06 2.11805268120322e-06 -1.875334590075331e-07" pbc="F F F"
N        0.49600468       0.49600468       0.49600468       0.00000878       0.00000878      -0.00001413       0.00000025
N        0.49600468      -0.49600468      -0.49600468       0.00001940      -0.00000822      -0.00000798       0.00000010
N       -0.49600468       0.49600468      -0.49600468      -0.00000822       0.00001940      -0.00000798       0.00000010
N       -0.49600468      -0.49600468       0.49600468      -0.00001996      -0.00001996       0.00003009      -0.00000046
