4
Properties=species:S:1:pos:R:3:forces:R:3:charge:R:1 energy=-312.50458196926803 free_energy=-312.50458196926803 dipole="2.1180463737525107e-06 2.1180496247980227e-06 -1.8753241615727407e-07" pbc="F F F"
N        0.49600454       0.49600454       0.49600454       0.00002670       0.00002670       0.00000379       0.00000025
N        0.49600454      -0.49600454      -0.49600454       0.00003732      -0.00002614      -0.00002590       0.00000010
N       -0.49600454       0.49600454      -0.49600454      -0.00002614       0.00003732      -0.00002590       0.00000010
N       -0.49600454      -0.49600454       0.49600454      -0.00003788      -0.00003788       0.00004801      -0.00000046
