4
Properties=species:S:1:pos:R:3:forces:R:3:charge:R:1 energy=-312.50458196960057 free_energy=-312.50458196960057 dipole="4.700037786199128e-16 1.3071980092866327e-15 5.875047232748911e-16" pbc="F F F"
N        0.49600468       0.49600468       0.49600468       0.00006540       0.00006540       0.00006540       0.00000000
N        0.49600468      -0.49600468      -0.49600468       0.00006540      -0.00006540      -0.00006540      -0.00000000
N       -0.49600468       0.49600468      -0.49600468      -0.00006540       0.00006540      -0.00006540      -0.00000000
N       -0.49600468      -0.49600468       0.49600468      -0.00006540      -0.00006540       0.00006540      -0.00000000
