4
Properties=species:S:1:pos:R:3:forces:R:3:charge:R:1 energy=-312.50458196955555 free_energy=-312.50458196955555 dipole="4.039094972514876e-15 -3.9656568821055146e-16 -2.0562665314621186e-16" pbc="F F F"
N        0.49600459       0.49600459       0.49600459       0.00009514       0.00009514       0.00009514      -0.00000000
N        0.49600459      -0.49600459      -0.49600459       0.00009514      -0.00009514      -0.00009514      -0.00000000
N       -0.49600459       0.49600459      -0.49600459      -0.00009514       0.00009514      -0.00009514      -0.00000000
N       -0.49600459      -0.49600459       0.49600459      -0.00009514      -0.00009514       0.00009514      -0.00000000
