4
Properties=species:S:1:pos:R:3:forces:R:3:charge:R:1 energy=-312.50458196930146 free_energy=-312.50458196930146 dipole="2.1180475875519566e-06 2.1180508405215466e-06 -1.8753283172874007e-07" pbc="F F F"
N        0.49600459       0.49600459       0.49600459       0.00001956       0.00001956      -0.00000335       0.00000025
N        0.49600459      -0.49600459      -0.49600459       0.00003018      -0.00001900      -0.00001877       0.00000010
N       -0.49600459       0.49600459      -0.49600459      -0.00001900       0.00003018      -0.00001876       0.00000010
N       -0.49600459      -0.49600459       0.49600459      -0.00003074      -0.00003074       0.00004088      -0.00000046
