4
Properties=species:S:1:pos:R:3:forces:R:3:charge:R:1 energy=-312.50458196951723 free_energy=-312.50458196951723 dipole="1.3218856273685048e-16 -1.7918894059884176e-15 2.717209345146371e-15" pbc="F F F"
N        0.49600454       0.49600454       0.49600454       0.00011766       0.00011766       0.00011766       0.00000000
N        0.49600454      -0.49600454      -0.49600454       0.00011766      -0.00011766      -0.00011766       0.00000000
N       -0.49600454       0.49600454      -0.49600454      -0.00011766       0.00011766      -0.00011766      -0.00000000
N       -0.49600454      -0.49600454       0.49600454      -0.00011766      -0.00011766       0.00011766       0.00000000
