5
Properties=species:S:1:pos:R:3:initial_charges:R:1:forces:R:3:charge:R:1 energy=-380.558433769871 free_energy=-380.558433769871 dipole="2.1357355208907447 1.0441888185618862 1.6008973181699095e-15" pbc="F F F"
N        0.16753160      -0.04307930       0.00000000       1.00000000      -0.00012286      -0.00001416       0.00000000       0.08603321
N        1.17497723       0.40891375       0.00000000       0.00000000       0.00015020       0.00002798      -0.00000000       0.37630346
N        2.34087702       0.74019054      -0.00000000       0.00000000      -0.00012320      -0.00014808       0.00000000       0.07531268
N        3.08419045       1.69755644      -0.00000000       0.00000000       0.00013700       0.00019513      -0.00000000       0.37629654
N        3.88018916       2.46282286       0.00000000       0.00000000      -0.00004114      -0.00006087       0.00000000       0.08605412
