5
Properties=species:S:1:pos:R:3:initial_charges:R:1:forces:R:3:charge:R:1 energy=-380.5584337723125 free_energy=-380.5584337723125 dipole="2.135700340230715 1.0441475951067327 4.242994822761666e-07" pbc="F F F"
N        0.16753160      -0.04307930       0.00000000       1.00000000      -0.00011201      -0.00003060      -0.00000548       0.08602844
N        1.17497723       0.40891375       0.00000000       0.00000000       0.00019939       0.00003237      -0.00000478       0.37630923
N        2.34087702       0.74019054      -0.00000000       0.00000000      -0.00005039       0.00006107       0.00001679       0.07533021
N        3.08419045       1.69755644      -0.00000000       0.00000000      -0.00003039      -0.00006184      -0.00000182       0.37631126
N        3.88018916       2.46282286       0.00000000       0.00000000      -0.00000659      -0.00000099      -0.00000471       0.08602086
