5
Properties=species:S:1:pos:R:3:initial_charges:R:1:forces:R:3:charge:R:1 energy=-401.6645269341286 free_energy=-401.6645269341286 dipole="-5.015165332212859e-06 1.5708578056608913e-05 1.6834997946388458e-09" pbc="F F F"
N        1.11677941      -0.00000000      -0.00000000      -1.00000000      -0.00011790       0.00004097      -0.00002187      -0.20000120
N        0.34510382       1.06212033      -0.00000000       0.00000000      -0.00006562      -0.00014842       0.00002393      -0.19999504
N       -0.90349352       0.65642647       0.00000000       0.00000000       0.00014033      -0.00008109       0.00002393      -0.19999508
N       -0.90349352      -0.65642647       0.00000000       0.00000000       0.00007108       0.00010210      -0.00002187      -0.20000126
N        0.34510382      -1.06212033      -0.00000000       0.00000000      -0.00002789       0.00008643      -0.00000412      -0.20000743
