5
Properties=species:S:1:pos:R:3:initial_charges:R:1:forces:R:3:charge:R:1 energy=-401.66452693514344 free_energy=-401.66452693514344 dipole="4.8469139670178515e-15 -3.2606512141756455e-15 1.1650944752698138e-16" pbc="F F F"
N        1.11677941      -0.00000000      -0.00000000      -1.00000000      -0.00012046       0.00000000       0.00000000      -0.20000000
N        0.34510382       1.06212033      -0.00000000       0.00000000      -0.00003722      -0.00011456       0.00000000      -0.20000000
N       -0.90349352       0.65642647       0.00000000       0.00000000       0.00009745      -0.00007080      -0.00000000      -0.20000000
N       -0.90349352      -0.65642647       0.00000000       0.00000000       0.00009745       0.00007080      -0.00000000      -0.20000000
N        0.34510382      -1.06212033      -0.00000000       0.00000000      -0.00003722       0.00011456       0.00000000      -0.20000000
