5
Properties=species:S:1:pos:R:3:initial_magmoms:R:1:forces:R:3:charge:R:1 energy=-393.05197056166315 free_energy=-393.05197056166315 dipole="-0.001833144963995674 -0.05458432516367439 9.692386593052825e-16" pbc="F F F"
N        0.02133075       0.10846614      -0.00000000       1.00000000       0.00005012      -0.00008048       0.00000000      -0.18083914
N        1.15980599      -0.01522923       0.00000000       0.00000000      -0.00019780       0.00000017      -0.00000000       0.20978275
N        2.29456010       0.49986593       0.00000000       0.00000000       0.00010387       0.00014034      -0.00000000      -0.05788057
N        3.39268593      -0.08928734       0.00000000       0.00000000      -0.00021310      -0.00001744      -0.00000000       0.20979046
N        4.53685367      -0.04133004      -0.00000000       0.00000000       0.00025692      -0.00004259       0.00000000      -0.18085350
