5
Properties=species:S:1:pos:R:3:initial_magmoms:R:1:forces:R:3:charge:R:1 energy=-393.0519705635334 free_energy=-393.0519705635334 dipole="0.0032691151432148427 -0.05450070334479349 -3.308963575144415e-06" pbc="F F F"
N       -0.00496428       0.07704892       0.00000000       1.00000000       0.00004743      -0.00003829       0.00000381      -0.18086069
N        1.14007211       0.05900009      -0.00000000       0.00000000      -0.00009918       0.00010363      -0.00000616       0.20977686
N        2.22239049       0.67675198       0.00000000       0.00000000       0.00002783      -0.00010136       0.00000038      -0.05786446
N        3.37023341       0.19157061      -0.00000000       0.00000000      -0.00013062       0.00001054       0.00000445       0.20981507
N        4.50508789       0.34492891       0.00000000       0.00000000       0.00015453       0.00002548      -0.00000248      -0.18086678
