5
Properties=species:S:1:pos:R:3:initial_magmoms:R:1:forces:R:3:charge:R:1 energy=-393.05197055941284 free_energy=-393.05197055941284 dipole="0.0032742195426519894 -0.054510200235764146 4.683037289339216e-17" pbc="F F F"
N       -0.00496428       0.07704892       0.00000000       1.00000000       0.00002591      -0.00002295      -0.00000000      -0.18083678
N        1.14007211       0.05900009      -0.00000000       0.00000000      -0.00031496      -0.00002747       0.00000000       0.20975972
N        2.22239049       0.67675198       0.00000000       0.00000000       0.00004628       0.00007776      -0.00000000      -0.05788460
N        3.37023341       0.19157061      -0.00000000       0.00000000       0.00014522      -0.00005245      -0.00000000       0.20980692
N        4.50508789       0.34492891       0.00000000       0.00000000       0.00009754       0.00002511       0.00000000      -0.18084526
