5
Properties=species:S:1:pos:R:3:initial_magmoms:R:1:forces:R:3:charge:R:1 energy=-393.0519705644819 free_energy=-393.0519705644819 dipole="-0.0018179956494493105 -0.05458229150152319 -3.38346373508037e-06" pbc="F F F"
N        0.02133075       0.10846614      -0.00000000       1.00000000       0.00002967      -0.00006633       0.00000388      -0.18085393
N        1.15980599      -0.01522923       0.00000000       0.00000000      -0.00009019       0.00004025      -0.00000622       0.20979119
N        2.29456010       0.49986593       0.00000000       0.00000000       0.00005941       0.00004863       0.00000028      -0.05787133
N        3.39268593      -0.08928734       0.00000000       0.00000000      -0.00025318       0.00000846       0.00000449       0.20979228
N        4.53685367      -0.04133004      -0.00000000       0.00000000       0.00025429      -0.00003100      -0.00000243      -0.18085821
