6
Properties=species:S:1:pos:R:3:forces:R:3:charge:R:1 energy=-473.2966388767691 free_energy=-473.2966388767691 dipole="0.00013261865347388585 5.497498835996835e-05 -8.230443386397301e-14" pbc="F F F"
N        0.29994347      -0.19252860       0.00000000      -0.00016419      -0.00017081      -0.00000000      -0.20002212
N        1.22430131       0.45156791       0.00000000       0.00023803       0.00001218      -0.00000000       0.29145083
N        1.99196099       1.36564394      -0.00000000      -0.00013454       0.00020968       0.00000000      -0.09144277
N        3.33200316       1.26746957      -0.00000000      -0.00013013      -0.00024445       0.00000000      -0.09147011
N        4.09958543       2.18161767       0.00000000      -0.00006519       0.00015367      -0.00000000       0.29145058
N        5.02385381       2.82583595       0.00000000       0.00025603       0.00003973       0.00000000      -0.19996641
