6
Properties=species:S:1:pos:R:3:forces:R:3:charge:R:1 energy=-473.2966388805215 free_energy=-473.2966388805215 dipole="0.00010109132243304626 2.6993758797590764e-05 -6.64139791537236e-07" pbc="F F F"
N        0.29994347      -0.19252860       0.00000000      -0.00013060      -0.00011072      -0.00000021      -0.20001809
N        1.22430131       0.45156791       0.00000000       0.00021341      -0.00004846       0.00000164       0.29145094
N        1.99196099       1.36564394      -0.00000000      -0.00010055       0.00020097      -0.00000857      -0.09144305
N        3.33200316       1.26746957      -0.00000000      -0.00012366      -0.00016752       0.00001775      -0.09145969
N        4.09958543       2.18161767       0.00000000      -0.00021096       0.00001732      -0.00000606       0.29144750
N        5.02385381       2.82583595       0.00000000       0.00035235       0.00010840      -0.00000454      -0.19997762
