6
Properties=species:S:1:pos:R:3:forces:R:3:charge:R:1 energy=-426.09591979317474 free_energy=-426.09591979317474 dipole="0.0004974553025485064 -0.00017428320865069252 2.796596314192012e-05" pbc="F F F"
N        2.88601743      -0.05989627       5.41741898      -0.00030449       0.00014131      -0.00020209       0.00002701
N       -2.24709027       3.29774524       3.30626160       0.00041290      -0.00016104      -0.00012599      -0.00006113
N       -1.10670825      -5.84299690       1.30258661      -0.00003714       0.00026454      -0.00015758       0.00003703
N        2.20230764       5.52406079      -1.30258616      -0.00017333      -0.00020328       0.00015759       0.00003352
N       -3.66598935      -1.57641244      -3.30626181       0.00043482      -0.00008573       0.00012598      -0.00005597
N        2.46724208      -1.49846893      -5.41741922      -0.00033276       0.00004420       0.00020209       0.00001954
