6
Properties=species:S:1:pos:R:3:forces:R:3:charge:R:1 energy=-471.3758764529388 free_energy=-471.3758764529388 dipole="-1.3691797575921337e-13 -1.0936400423762097e-13 -6.541280329443738e-15" pbc="F F F"
N        1.29537806      -0.00000000      -0.00000000      -0.00005503       0.00000000      -0.00000000      -0.00000000
N        0.64768903       1.12183031       0.00000000      -0.00002752      -0.00004766       0.00000000      -0.00000000
N       -0.64768903       1.12183031      -0.00000000       0.00002752      -0.00004766      -0.00000000      -0.00000000
N       -1.29537806      -0.00000000      -0.00000000       0.00005503       0.00000000      -0.00000000       0.00000000
N       -0.64768903      -1.12183031       0.00000000       0.00002752       0.00004766       0.00000000       0.00000000
N        0.64768903      -1.12183031      -0.00000000      -0.00002752       0.00004766      -0.00000000       0.00000000
