6
Properties=species:S:1:pos:R:3:forces:R:3:charge:R:1 energy=-472.2522157428889 free_energy=-472.2522157428889 dipole="4.6411899602169125e-05 -6.1768781443542804e-06 -3.0296329804688657e-06" pbc="F F F"
N        1.27017971      -0.00577846       0.23892776       0.00009721       0.00015919      -0.00000876      -0.04581295
N        0.63199710       1.10180047      -0.23886315       0.00020198      -0.00004312      -0.00002433      -0.04582469
N       -0.59622876       1.03478332      -0.00002168      -0.00024411       0.00039595       0.00001704       0.09164793
N       -1.27014552       0.00577345       0.23884647      -0.00005418      -0.00023978       0.00000195      -0.04583805
N       -0.63193145      -1.10180874      -0.23889966      -0.00006721       0.00009690       0.00000109      -0.04583354
N        0.59628300      -1.03478746       0.00002201       0.00006631      -0.00036915       0.00001300       0.09166131
