6
Properties=species:S:1:pos:R:3:forces:R:3:charge:R:1 energy=-472.2522156864632 free_energy=-472.2522156864632 dipole="0.00018921966107128543 8.443543714640486e-05 6.25076239008053e-08" pbc="F F F"
N        1.27014812       0.00577756       0.23885276      -0.00025138       0.00018249      -0.00012625      -0.04578555
N        0.59623245       1.03478891      -0.00000848       0.00037513      -0.00015516       0.00004007       0.09170982
N       -0.63199250       1.10180875      -0.23885556       0.00003318       0.00016787      -0.00004285      -0.04584288
N       -1.27017750      -0.00577563       0.23892116      -0.00041164       0.00043149       0.00014974      -0.04587894
N       -0.59627843      -1.03478181       0.00000825       0.00004411      -0.00085472      -0.00005660       0.09161962
N        0.63193663      -1.10180033      -0.23890754       0.00021059       0.00022804       0.00003590      -0.04582207
