6
Properties=species:S:1:pos:R:3:forces:R:3:charge:R:1 energy=-426.09591976316693 free_energy=-426.09591976316693 dipole="0.0005900123049661283 0.0002026718680422642 0.0005071244016858747" pbc="F F F"
N        2.88601805      -0.05989621       5.41742015      -0.00030445       0.00014128      -0.00020206       0.00006204
N       -2.24709054       3.29774625       3.30626268       0.00041284      -0.00016102      -0.00012598      -0.00003797
N       -1.10670868      -5.84299847       1.30258712      -0.00003714       0.00026456      -0.00015761       0.00001689
N        2.20230791       5.52406201      -1.30258643      -0.00017331      -0.00020327       0.00015755       0.00005153
N       -3.66599024      -1.57641297      -3.30626293       0.00043487      -0.00008575       0.00012598      -0.00007551
N        2.46724279      -1.49846912      -5.41742060      -0.00033281       0.00004420       0.00020212      -0.00001698
