7
Properties=species:S:1:pos:R:3:initial_charges:R:1:forces:R:3:charge:R:1 energy=-538.608070248451 free_energy=-538.608070248451 dipole="3.1302165723415727 1.6749272638676749 -4.96178347816672e-06" pbc="F F F"
N        0.41776335      -0.28636957      -0.00000000       1.00000000      -0.00013149      -0.00005274      -0.00000353       0.04260768
N        1.29935723       0.39377552      -0.00000000       0.00000000       0.00025151       0.00013167       0.00000608       0.34797071
N        2.02503326       1.36891724      -0.00000000       0.00000000      -0.00019417       0.00003203      -0.00000709       0.06580738
N        3.28798873       1.44103402      -0.00000000       0.00000000       0.00009433      -0.00018398       0.00000502       0.08727663
N        3.82810955       2.58495410       0.00000000       0.00000000      -0.00040879      -0.00005979      -0.00000060       0.06575142
N        5.00413218       2.89231493       0.00000000       0.00000000       0.00042481       0.00013598       0.00001072       0.34795860
N        5.96508797       3.45478343       0.00000000       0.00000000      -0.00003619      -0.00000318      -0.00001060       0.04262757
