7
Properties=species:S:1:pos:R:3:initial_charges:R:1:forces:R:3:charge:R:1 energy=-538.6080702405918 free_energy=-538.6080702405918 dipole="3.130085712406032 1.674870250029809 -1.2549987272933781e-15" pbc="F F F"
N        0.41776335      -0.28636957      -0.00000000       1.00000000      -0.00019892      -0.00009150      -0.00000000       0.04258743
N        1.29935723       0.39377552      -0.00000000       0.00000000       0.00039935       0.00029128       0.00000000       0.34797665
N        2.02503326       1.36891724      -0.00000000       0.00000000      -0.00007850      -0.00013405      -0.00000000       0.06582637
N        3.28798873       1.44103402      -0.00000000       0.00000000      -0.00012746       0.00002826       0.00000000       0.08729609
N        3.82810955       2.58495410       0.00000000       0.00000000       0.00007404      -0.00013899       0.00000000       0.06578241
N        5.00413218       2.89231493       0.00000000       0.00000000      -0.00023181      -0.00011546       0.00000000       0.34798090
N        5.96508797       3.45478343       0.00000000       0.00000000       0.00016330       0.00016045      -0.00000000       0.04255015
