7
Properties=species:S:1:pos:R:3:initial_charges:R:1:forces:R:3:charge:R:1 energy=-558.0229101183144 free_energy=-558.0229101183144 dipole="-0.006317572763504783 0.003174155575635676 -0.04366463834396136" pbc="F F F"
N        1.48590383      -0.02774793       0.09792479      -1.00000000      -0.00012650      -0.00024975      -0.00001324      -0.13229827
N        0.92801783       1.20719425       0.02312655       0.00000000       0.00012662      -0.00006069      -0.00000899      -0.19423299
N       -0.31335233       1.36127285       0.02958544       0.00000000       0.00002713       0.00005538       0.00004384      -0.05570393
N       -1.42383389       0.68568818      -0.08827472       0.00000000      -0.00007560       0.00023968      -0.00007474      -0.23544662
N       -1.25967241      -0.60375733       0.02958497       0.00000000      -0.00021895      -0.00017379       0.00006848      -0.05578171
N       -0.36520693      -1.47822301       0.02312659       0.00000000       0.00031590      -0.00018820      -0.00002064      -0.19425597
N        0.94814389      -1.14442701       0.09792638       0.00000000      -0.00004861       0.00037736       0.00000529      -0.13228051
