7
Properties=species:S:1:pos:R:3:initial_charges:R:1:forces:R:3:charge:R:1 energy=-558.0234225848681 free_energy=-558.0234225848681 dipole="-0.010249026033218487 0.005518698537607309 -0.031423811455501265" pbc="F F F"
N        1.48344598      -0.02740519       0.05228056      -1.00000000       0.00039709       0.00043797      -0.00006962      -0.13270748
N        0.92959356       1.20936632       0.08039864       0.00000000      -0.00075816      -0.00003155      -0.00000704      -0.19352668
N       -0.30829966       1.36135781      -0.03761691       0.00000000       0.00030089      -0.00031591       0.00006518      -0.05841704
N       -1.42269217       0.68525709      -0.04434474       0.00000000       0.00035046       0.00023649      -0.00004043      -0.22984087
N       -1.25979585      -0.60707119       0.01966093       0.00000000      -0.00012299       0.00003798       0.00001175      -0.05910145
N       -0.36341725      -1.48190815       0.00898321       0.00000000       0.00005073       0.00000974       0.00004441      -0.19308567
N        0.94288459      -1.14222295       0.13505177       0.00000000      -0.00021803      -0.00037472      -0.00000425      -0.13332081
