7
Properties=species:S:1:pos:R:3:initial_magmoms:R:1:forces:R:3:charge:R:1 energy=-551.6282766583516 free_energy=-551.6282766583516 dipole="-0.026608777092906453 0.03951680102056096 8.601119550924864e-16" pbc="F F F"
N        0.38017759      -0.26301467      -0.00000000       1.00000000       0.00018393       0.00010490       0.00000000      -0.19271861
N        1.28847974       0.41299228      -0.00000000       0.00000000      -0.00023327      -0.00020942      -0.00000000       0.27664013
N        2.02866947       1.35008222       0.00000000       0.00000000      -0.00009518       0.00015765       0.00000000      -0.03475012
N        3.33802635       1.36683545      -0.00000000       0.00000000       0.00013213      -0.00024591      -0.00000000      -0.09834748
N        3.84421436       2.57450656      -0.00000000       0.00000000      -0.00020306       0.00016136       0.00000000      -0.03475752
N        4.99039367       2.90960538       0.00000000       0.00000000       0.00044736       0.00021022      -0.00000000       0.27663799
N        5.95751108       3.49840245       0.00000000       0.00000000      -0.00023190      -0.00017878       0.00000000      -0.19270438
