7
Properties=species:S:1:pos:R:3:initial_magmoms:R:1:forces:R:3:charge:R:1 energy=-551.6282766089315 free_energy=-551.6282766089315 dipole="-0.026787697025093204 0.03941387649620397 -2.245069717651496e-06" pbc="F F F"
N        0.38017759      -0.26301467      -0.00000000       1.00000000       0.00016279       0.00010738      -0.00000059      -0.19271167
N        1.28847974       0.41299228       0.00000000       0.00000000      -0.00023702      -0.00022637       0.00000090       0.27663416
N        2.02866947       1.35008222       0.00000000       0.00000000       0.00006978       0.00013773       0.00000341      -0.03474505
N        3.33802635       1.36683545      -0.00000000       0.00000000       0.00001274       0.00007069      -0.00001317      -0.09832277
N        3.84421436       2.57450656      -0.00000000       0.00000000       0.00020741      -0.00003904       0.00001804      -0.03471772
N        4.99039367       2.90960538       0.00000000       0.00000000      -0.00043036      -0.00020055      -0.00000213       0.27663667
N        5.95751108       3.49840245       0.00000000       0.00000000       0.00021464       0.00015016      -0.00000645      -0.19277363
