7
Properties=species:S:1:pos:R:3:initial_magmoms:R:1:forces:R:3:charge:R:1 energy=-497.1098318328631 free_energy=-497.1098318328631 dipole="0.0006386905448160879 -0.00031177185905893984 0.00016751548824935506" pbc="F F F"
N        3.29804383      -0.32608125       6.92490573       1.00000000      -0.00010891       0.00010512      -0.00009645       0.00011612
N       -1.63921625       4.45626977       4.44308936       0.00000000       0.00018150      -0.00009623      -0.00002937      -0.00009072
N       -3.01183629      -7.19770082       2.29919935       0.00000000      -0.00024067       0.00022743      -0.00037445      -0.00001797
N        4.55168779       5.93686289       0.00000665       0.00000000      -0.00010379      -0.00013534       0.00000001      -0.00002752
N       -6.16904250      -4.77712307      -2.29918131       0.00000000       0.00028210      -0.00017337       0.00037445      -0.00002051
N        4.72904374      -0.42613836      -4.44310191       0.00000000      -0.00014002       0.00015027       0.00002933       0.00001683
N       -1.17108866       3.10032011      -6.92491788       0.00000000       0.00012979      -0.00007789       0.00009647       0.00002377
