8
Properties=species:S:1:pos:R:3:forces:R:3:charge:R:1 energy=-631.0201004894511 free_energy=-631.0201004894511 dipole="-0.00019167805796896313 -0.00014430293324380205 -7.0037626370711885e-06" pbc="F F F"
N        0.38569997      -0.17621432       0.00000000       0.00018757       0.00028161      -0.00000168      -0.18801698
N        1.31049532       0.46959985       0.00000000      -0.00006823      -0.00062890       0.00000149       0.28826932
N        2.04902781       1.41096800       0.00000000       0.00016370       0.00063103       0.00000021      -0.05515564
N        3.36602835       1.40529369       0.00000000      -0.00031084      -0.00040593       0.00001309      -0.04504053
N        3.90980193       2.54454177      -0.00000000      -0.00005742      -0.00007419      -0.00003477      -0.04510303
N        5.22681489       2.53880790      -0.00000000      -0.00002512       0.00023398       0.00004953      -0.05515524
N        5.96531335       3.48020755      -0.00000000      -0.00026707      -0.00028430      -0.00001331       0.28827452
N        6.89011474       4.12600843      -0.00000000       0.00037742       0.00024670      -0.00001456      -0.18807242
