8
Properties=species:S:1:pos:R:3:forces:R:3:charge:R:1 energy=-568.128396228922 free_energy=-568.128396228922 dipole="0.0002989784091997463 -0.00023199930334432325 -5.7641354547023406e-05" pbc="F F F"
N        2.78584070      -0.59791441       6.19838827      -0.00020841       0.00022422      -0.00021807       0.00005087
N       -1.45375400       3.91807410       4.04822177       0.00030517      -0.00025079      -0.00009841       0.00000336
N       -2.69874679      -6.15830979       2.14561585      -0.00020953       0.00038099      -0.00018485      -0.00001048
N        4.54684410       4.85917431       0.26647194      -0.00006120      -0.00046007      -0.00005914      -0.00007148
N       -6.40793429      -1.79543827      -0.26643984       0.00043649      -0.00015776       0.00005916      -0.00005627
N        6.70907208      -0.44341510      -2.14560853      -0.00024151       0.00036153       0.00018483       0.00002812
N       -2.80707015       3.09600078      -4.04824222       0.00008191      -0.00038640       0.00009840       0.00002174
N       -0.75340028      -2.74787809      -6.19840725      -0.00010293       0.00028829       0.00021807       0.00003415
