8
Properties=species:S:1:pos:R:3:forces:R:3:charge:R:1 energy=-568.1283962492505 free_energy=-568.1283962492505 dipole="0.0005911451015730525 -0.0011442239964284957 -0.00025477084069769465" pbc="F F F"
N        2.78584055      -0.59791453       6.19838813      -0.00020844       0.00022426      -0.00021809       0.00002309
N       -1.45375413       3.91807405       4.04822178       0.00030521      -0.00025083      -0.00009844      -0.00003337
N       -2.69874675      -6.15830953       2.14561583      -0.00020952       0.00038093      -0.00018481       0.00007643
N        4.54684418       4.85917452       0.26647193      -0.00006124      -0.00046005      -0.00005912      -0.00007223
N       -6.40793407      -1.79543821      -0.26643987       0.00043650      -0.00015769       0.00005912      -0.00008913
N        6.70907216      -0.44341527      -2.14560853      -0.00024148       0.00036151       0.00018482       0.00005903
N       -2.80707016       3.09600054      -4.04824205       0.00008191      -0.00038644       0.00009846      -0.00003738
N       -0.75340041      -2.74787802      -6.19840724      -0.00010294       0.00028831       0.00021805       0.00007356
