8
Properties=species:S:1:pos:R:3:forces:R:3:charge:R:1 energy=-568.1283961928975 free_energy=-568.1283961928975 dipole="0.00025164588723798446 -0.0009008936387884363 -0.0002488299996337447" pbc="F F F"
N        2.78584125      -0.59791410       6.19838950      -0.00020845       0.00022426      -0.00021808       0.00004325
N       -1.45375394       3.91807409       4.04822106       0.00030521      -0.00025086      -0.00009845      -0.00007727
N       -2.69874741      -6.15831111       2.14561598      -0.00020951       0.00038092      -0.00018480       0.00005868
N        4.54684396       4.85917456       0.26647157      -0.00006118      -0.00046002      -0.00005914       0.00001520
N       -6.40793418      -1.79543778      -0.26643985       0.00043647      -0.00015768       0.00005913      -0.00005377
N        6.70907226      -0.44341469      -2.14560890      -0.00024154       0.00036152       0.00018484      -0.00004171
N       -2.80707027       3.09600040      -4.04824187       0.00008191      -0.00038643       0.00009846      -0.00004329
N       -0.75340030      -2.74787784      -6.19840750      -0.00010291       0.00028829       0.00021803       0.00009891
