8
Properties=species:S:1:pos:R:3:forces:R:3:charge:R:1 energy=-568.1283962766906 free_energy=-568.1283962766906 dipole="0.00043620862342407495 -0.0008470072693947693 -5.135719654499641e-05" pbc="F F F"
N        2.78584138      -0.59791522       6.19838972      -0.00020844       0.00022425      -0.00021808       0.00004050
N       -1.45375475       3.91807512       4.04822300       0.00030521      -0.00025084      -0.00009844      -0.00005172
N       -2.69874774      -6.15831057       2.14561579      -0.00020950       0.00038093      -0.00018481       0.00004653
N        4.54684588       4.85917575       0.26647172      -0.00006122      -0.00046002      -0.00005912      -0.00004289
N       -6.40793491      -1.79543897      -0.26644012       0.00043646      -0.00015770       0.00005913      -0.00003962
N        6.70907291      -0.44341500      -2.14560892      -0.00024150       0.00036150       0.00018482       0.00003971
N       -2.80707116       3.09600082      -4.04824349       0.00008193      -0.00038645       0.00009844      -0.00002810
N       -0.75340024      -2.74787840      -6.19840770      -0.00010294       0.00028833       0.00021807       0.00003558
