8
Properties=species:S:1:pos:R:3:forces:R:3:charge:R:1 energy=-632.2953559278473 free_energy=-632.2953559278473 dipole="-2.1219936223784972e-14 -1.8477023546995325e-14 2.513364717731183e-16" pbc="F F F"
N        1.19272501       0.02091982      -0.00000000      -0.00017848       0.00024565       0.00000000       0.27293340
N        0.38846823       1.12788431       0.00000000       0.00017848      -0.00024565       0.00000000       0.27293340
N       -0.83861928       0.72060595       0.00000000       0.00007293       0.00001155      -0.00000000      -0.13104699
N       -0.77391825      -0.56228452       0.00000000       0.00007711       0.00005602       0.00000000      -0.01083942
N        0.42618937      -1.02025381       0.00000000       0.00003352       0.00006579      -0.00000000      -0.13104699
N        2.41981251       0.42819819      -0.00000000      -0.00007293      -0.00001155      -0.00000000      -0.13104699
N        2.35511149       1.71108865      -0.00000000      -0.00007711      -0.00005602       0.00000000      -0.01083942
N        1.15500386       2.16905794       0.00000000      -0.00003352      -0.00006579       0.00000000      -0.13104699
