8
Properties=species:S:1:pos:R:3:forces:R:3:charge:R:1 energy=-631.0770093085644 free_energy=-631.0770093085644 dipole="0.020019571319504947 0.07520357081380252 -8.698410004982896e-15" pbc="F F F"
N       -1.27405226      -0.20348199       0.00000000       0.00005802       0.00003765      -0.00000000      -0.17786604
N        1.78859933       0.12638357      -0.00000000      -0.00005317      -0.00027488      -0.00000000       0.26725933
N        2.17482130       1.26349267      -0.00000000       0.00018630       0.00012932       0.00000000      -0.06294232
N        1.67215718       2.47360896       0.00000000      -0.00000203       0.00002069      -0.00000000      -0.02643904
N        0.47961112       2.79116792      -0.00000000      -0.00007848      -0.00004031      -0.00000000      -0.02644023
N       -0.55828657       1.99126978      -0.00000000      -0.00001278       0.00004061       0.00000000      -0.06295225
N       -0.78864787       0.81265711      -0.00000000      -0.00005379      -0.00004126       0.00000000       0.26725701
N        1.70445025      -0.99659333       0.00000000      -0.00004407       0.00012818      -0.00000000      -0.17787646
