8
Properties=species:S:1:pos:R:3:forces:R:3:charge:R:1 energy=-632.2953559256617 free_energy=-632.2953559256617 dipole="1.9868987042909683e-05 -2.6539188824290172e-05 -2.9280676103327044e-06" pbc="F F F"
N        1.19272501       0.02091982      -0.00000000      -0.00019651       0.00027241       0.00001459       0.27293331
N        0.38846823       1.12788431       0.00000000       0.00019608      -0.00026758       0.00000935       0.27292406
N       -0.83861928       0.72060595       0.00000000       0.00003463       0.00003499       0.00001444      -0.13105343
N       -0.77391825      -0.56228452       0.00000000       0.00013501       0.00001301      -0.00001194      -0.01083586
N        0.42618937      -1.02025381       0.00000000       0.00000788       0.00007957      -0.00002238      -0.13103953
N        2.41981251       0.42819819      -0.00000000      -0.00007874       0.00001916       0.00003548      -0.13103943
N        2.35511149       1.71108865      -0.00000000      -0.00005493      -0.00012598      -0.00002513      -0.01083566
N        1.15500386       2.16905794       0.00000000      -0.00004343      -0.00002557      -0.00001442      -0.13105346
