8
Properties=species:S:1:pos:R:3:forces:R:3:charge:R:1 energy=-631.0770092845911 free_energy=-631.0770092845911 dipole="0.020040053008744292 0.07525963273680715 -3.8936300984035316e-06" pbc="F F F"
N       -1.27405226      -0.20348199       0.00000000       0.00009948       0.00012028       0.00000064      -0.17784487
N        1.78859933       0.12638357      -0.00000000       0.00007279       0.00035743      -0.00001341       0.26726576
N        2.17482130       1.26349267      -0.00000000      -0.00005217      -0.00005835       0.00003071      -0.06290709
N        1.67215718       2.47360896       0.00000000       0.00008397      -0.00010640      -0.00000794      -0.02642771
N        0.47961112       2.79116792      -0.00000000       0.00005529      -0.00001349       0.00000028      -0.02644552
N       -0.55828657       1.99126978      -0.00000000      -0.00007540       0.00016646      -0.00000056      -0.06297010
N       -0.78864787       0.81265711      -0.00000000      -0.00013994      -0.00033431      -0.00000181       0.26725055
N        1.70445025      -0.99659333       0.00000000      -0.00004401      -0.00013162      -0.00000790      -0.17792102
