8
Properties=species:S:1:pos:R:3:forces:R:3:charge:R:1 energy=-568.128396162723 free_energy=-568.128396162723 dipole="-0.00014036980420125772 -0.0011216358994535769 -0.0010746882372812204" pbc="F F F"
N        2.78584033      -0.59791424       6.19838777      -0.00020848       0.00022430      -0.00021814      -0.00003842
N       -1.45375385       3.91807369       4.04822137       0.00030525      -0.00025087      -0.00009842      -0.00004662
N       -2.69874661      -6.15830959       2.14561600      -0.00020948       0.00038093      -0.00018478       0.00003379
N        4.54684381       4.85917420       0.26647205      -0.00006122      -0.00046006      -0.00005912      -0.00004246
N       -6.40793386      -1.79543792      -0.26643976       0.00043642      -0.00015769       0.00005915      -0.00001028
N        6.70907204      -0.44341522      -2.14560845      -0.00024151       0.00036153       0.00018485       0.00001192
N       -2.80707001       3.09600058      -4.04824176       0.00008192      -0.00038639       0.00009847      -0.00005369
N       -0.75340047      -2.74787797      -6.19840724      -0.00010290       0.00028826       0.00021799       0.00014576
