8
Properties=species:S:1:pos:R:3:forces:R:3:charge:R:1 energy=-631.020100512667 free_energy=-631.020100512667 dipole="-3.3761460366747684e-05 -1.6333005911480497e-05 1.4295545546324086e-16" pbc="F F F"
N        0.38569997      -0.17621432       0.00000000      -0.00000928       0.00017012       0.00000000      -0.18804791
N        1.31049532       0.46959985       0.00000000       0.00022825      -0.00036140       0.00000000       0.28827029
N        2.04902781       1.41096800       0.00000000      -0.00004856       0.00044813      -0.00000000      -0.05514772
N        3.36602835       1.40529369      -0.00000000      -0.00019761      -0.00037092      -0.00000000      -0.04505985
N        3.90980193       2.54454177      -0.00000000       0.00009794      -0.00008318       0.00000000      -0.04508001
N        5.22681489       2.53880790      -0.00000000      -0.00024911       0.00015787       0.00000000      -0.05515805
N        5.96531335       3.48020755       0.00000000      -0.00008019      -0.00006436      -0.00000000       0.28827527
N        6.89011474       4.12600843      -0.00000000       0.00025855       0.00010374       0.00000000      -0.18805202
