8
Properties=species:S:1:pos:R:3:forces:R:3:charge:R:1 energy=-623.3753760902567 free_energy=-623.3753760902567 dipole="3.407527394994368e-15 2.9375236163744554e-16 5.757546288093933e-15" pbc="F F F"
N       -0.71116663      -0.71116663      -0.71116663       0.00019446       0.00019446       0.00019446      -0.00000000
N       -0.71116663      -0.71116663       0.71116663       0.00019446       0.00019446      -0.00019446      -0.00000000
N       -0.71116663       0.71116663      -0.71116663       0.00019446      -0.00019446       0.00019446      -0.00000000
N       -0.71116663       0.71116663       0.71116663       0.00019446      -0.00019446      -0.00019446      -0.00000000
N        0.71116663      -0.71116663      -0.71116663      -0.00019446       0.00019446       0.00019446      -0.00000000
N        0.71116663      -0.71116663       0.71116663      -0.00019446       0.00019446      -0.00019446      -0.00000000
N        0.71116663       0.71116663      -0.71116663      -0.00019446      -0.00019446       0.00019446      -0.00000000
N        0.71116663       0.71116663       0.71116663      -0.00019446      -0.00019446      -0.00019446       0.00000000
