8
Properties=species:S:1:pos:R:3:forces:R:3:charge:R:1 energy=-623.375376095594 free_energy=-623.375376095594 dipole="-1.122134021455042e-14 -7.16755762395367e-15 1.1133214506059186e-14" pbc="F F F"
N       -0.71116365      -0.71116365      -0.71116365      -0.00004497      -0.00004497      -0.00004497       0.00000000
N       -0.71116365      -0.71116365       0.71116365      -0.00004497      -0.00004497       0.00004497       0.00000000
N       -0.71116365       0.71116365      -0.71116365      -0.00004497       0.00004497      -0.00004497       0.00000000
N       -0.71116365       0.71116365       0.71116365      -0.00004497       0.00004497       0.00004497       0.00000000
N        0.71116365      -0.71116365      -0.71116365       0.00004497      -0.00004497      -0.00004497      -0.00000000
N        0.71116365      -0.71116365       0.71116365       0.00004497      -0.00004497       0.00004497       0.00000000
N        0.71116365       0.71116365      -0.71116365       0.00004497       0.00004497      -0.00004497      -0.00000000
N        0.71116365       0.71116365       0.71116365       0.00004497       0.00004497       0.00004497       0.00000000
