8
Properties=species:S:1:pos:R:3:forces:R:3:charge:R:1 energy=-623.3753760902047 free_energy=-623.3753760902047 dipole="-1.5973619980014166e-06 -1.5973616848026487e-06 -2.654764177227684e-07" pbc="F F F"
N       -0.71116663      -0.71116663      -0.71116663       0.00018487       0.00018487       0.00018237      -0.00000081
N       -0.71116663      -0.71116663       0.71116663       0.00019309       0.00019309      -0.00019815       0.00000138
N       -0.71116663       0.71116663      -0.71116663       0.00018691      -0.00019434       0.00018786       0.00000104
N       -0.71116663       0.71116663       0.71116663       0.00018661      -0.00018455      -0.00018352      -0.00000010
N        0.71116663      -0.71116663      -0.71116663      -0.00019434       0.00018691       0.00018786       0.00000104
N        0.71116663      -0.71116663       0.71116663      -0.00018455       0.00018661      -0.00018352      -0.00000010
N        0.71116663       0.71116663      -0.71116663      -0.00018650      -0.00018650       0.00017392      -0.00000100
N        0.71116663       0.71116663       0.71116663      -0.00018609      -0.00018609      -0.00016681      -0.00000144
