8
Properties=species:S:1:pos:R:3:forces:R:3:charge:R:1 energy=-632.2953559170851 free_energy=-632.2953559170851 dipole="4.156940647301643e-05 5.4949097798545146e-05 -4.448639663504806e-06" pbc="F F F"
N        1.63168443      -0.11551029      -0.00015390      -0.00025915      -0.00036526       0.00000370      -0.13103909
N        0.48525807       0.48225174      -0.00005042      -0.00033958       0.00000304      -0.00002226       0.27294398
N       -0.10541195       1.63235034      -0.00003305       0.00003037       0.00007952      -0.00000459      -0.13102937
N       -1.36319548       1.37165151       0.00010005      -0.00001417      -0.00006974       0.00004070      -0.01083770
N       -1.63168174       0.11549734       0.00017167       0.00024308       0.00020557      -0.00001428      -0.13106332
N       -0.48525258      -0.48226157       0.00007895       0.00022839      -0.00009522      -0.00002305       0.27292534
N        0.10541367      -1.63236277       0.00004820      -0.00011094      -0.00012672       0.00001381      -0.13106189
N        1.36319741      -1.37166663      -0.00009189       0.00022199       0.00036883       0.00000599      -0.01083795
