8
Properties=species:S:1:pos:R:3:forces:R:3:charge:R:1 energy=-568.1283962782381 free_energy=-568.1283962782381 dipole="0.0005554362653392808 -0.0005979463668327751 -1.5125762226008138e-05" pbc="F F F"
N        2.78584088      -0.59791401       6.19838904      -0.00020844       0.00022424      -0.00021807       0.00003559
N       -1.45375366       3.91807389       4.04822112       0.00030520      -0.00025083      -0.00009843      -0.00003568
N       -2.69874730      -6.15831088       2.14561614      -0.00020951       0.00038095      -0.00018482       0.00002995
N        4.54684395       4.85917454       0.26647184      -0.00006121      -0.00046001      -0.00005912      -0.00003160
N       -6.40793431      -1.79543782      -0.26643971       0.00043647      -0.00015771       0.00005913      -0.00004337
N        6.70907252      -0.44341483      -2.14560883      -0.00024149       0.00036149       0.00018481       0.00004449
N       -2.80707033       3.09600064      -4.04824194       0.00008192      -0.00038645       0.00009843      -0.00002760
N       -0.75340037      -2.74787801      -6.19840766      -0.00010294       0.00028833       0.00021808       0.00002822
