8
Properties=species:S:1:pos:R:3:forces:R:3:charge:R:1 energy=-623.3753760955415 free_energy=-623.3753760955415 dipole="-1.596114574573316e-06 -1.5961142611982966e-06 -2.654545374606109e-07" pbc="F F F"
N       -0.71116365      -0.71116365      -0.71116365      -0.00004556      -0.00004556      -0.00004807      -0.00000081
N       -0.71116365      -0.71116365       0.71116365      -0.00003734      -0.00003734       0.00003229       0.00000138
N       -0.71116365       0.71116365      -0.71116365      -0.00004352       0.00003609      -0.00004258       0.00000104
N       -0.71116365       0.71116365       0.71116365      -0.00004382       0.00004588       0.00004692      -0.00000010
N        0.71116365      -0.71116365      -0.71116365       0.00003609      -0.00004352      -0.00004258       0.00000104
N        0.71116365      -0.71116365       0.71116365       0.00004588      -0.00004382       0.00004692      -0.00000010
N        0.71116365       0.71116365      -0.71116365       0.00004393       0.00004393      -0.00005652      -0.00000100
N        0.71116365       0.71116365       0.71116365       0.00004435       0.00004435       0.00006362      -0.00000144
