8
Properties=species:S:1:pos:R:3:forces:R:3:charge:R:1 energy=-632.2953559207507 free_energy=-632.2953559207507 dipole="1.987016395070884e-05 -2.6541014288181087e-05 -2.928319813894592e-06" pbc="F F F"
N        1.15429473      -0.00697204       0.00000000       0.00029796      -0.00040817       0.00001459       0.27295537
N        0.35006588       1.09995400      -0.00000000      -0.00029839       0.00041301       0.00000935       0.27294612
N       -0.87702861       0.69269510      -0.00000000      -0.00015792       0.00000233       0.00001445      -0.13106522
N       -0.81233348      -0.59019482      -0.00000000       0.00015475       0.00002734      -0.00001194      -0.01083436
N        0.38777545      -1.04815833       0.00000000      -0.00008269      -0.00009347      -0.00002238      -0.13105131
N        2.38138921       0.40028686       0.00000000       0.00011382       0.00005183       0.00003548      -0.13105121
N        2.31669409       1.68317678      -0.00000000      -0.00007465      -0.00014032      -0.00002513      -0.01083416
N        1.11658516       2.14114029      -0.00000000       0.00004713       0.00014746      -0.00001442      -0.13106524
