8
Properties=species:S:1:pos:R:3:forces:R:3:charge:R:1 energy=-632.2953559214709 free_energy=-632.2953559214709 dipole="6.4625519560238015e-15 1.7625141698246733e-15 8.567643107294692e-16" pbc="F F F"
N        1.15429473      -0.00697204       0.00000000       0.00013191      -0.00018156       0.00000000       0.27295096
N        0.35006588       1.09995400      -0.00000000      -0.00013191       0.00018156       0.00000000       0.27295096
N       -0.87702861       0.69269510      -0.00000000      -0.00007879      -0.00002532      -0.00000000      -0.13105751
N       -0.81233348      -0.59019482      -0.00000000       0.00020512       0.00014903      -0.00000000      -0.01083593
N        0.38777545      -1.04815833       0.00000000      -0.00004843      -0.00006711       0.00000000      -0.13105751
N        2.38138921       0.40028686       0.00000000       0.00007879       0.00002532       0.00000000      -0.13105751
N        2.31669409       1.68317678      -0.00000000      -0.00020512      -0.00014903      -0.00000000      -0.01083593
N        1.11658516       2.14114029      -0.00000000       0.00004843       0.00006711      -0.00000000      -0.13105751
