8
Properties=species:S:1:pos:R:3:forces:R:3:charge:R:1 energy=-568.12839623726 free_energy=-568.12839623726 dipole="0.00044315646354246445 -0.00022141769361614904 -0.0006043710732510504" pbc="F F F"
N        2.78584052      -0.59791433       6.19838803      -0.00020847       0.00022426      -0.00021811      -0.00001115
N       -1.45375407       3.91807382       4.04822146       0.00030521      -0.00025086      -0.00009840      -0.00003001
N       -2.69874672      -6.15830963       2.14561586      -0.00020952       0.00038098      -0.00018483       0.00000628
N        4.54684387       4.85917430       0.26647195      -0.00006119      -0.00046000      -0.00005911      -0.00001160
N       -6.40793369      -1.79543799      -0.26643989       0.00043648      -0.00015774       0.00005916      -0.00005212
N        6.70907201      -0.44341526      -2.14560856      -0.00024149       0.00036147       0.00018482       0.00003614
N       -2.80707005       3.09600048      -4.04824186       0.00008190      -0.00038640       0.00009842       0.00001242
N       -0.75340050      -2.74787787      -6.19840701      -0.00010293       0.00028828       0.00021806       0.00005005
