4
Properties=species:S:1:pos:R:3:forces:R:3:charge:R:1 formula=N4 topology=ring-3-subst integrity=OK energy_eV=-5958.570332 delta_E_eV_atom=0.8469 sg=P1 energy=-311.35668221133346 free_energy=-311.35668221133346 dipole="-0.16300434867840977 0.14398419716001862 -0.015048273473074763" pbc="F F F"
N       -1.08315298       0.11916124      -0.19939505      -0.00012961      -0.00010416      -0.00014823      -0.05769084
N       -0.26559938       1.07289766       0.07519309       0.00016992       0.00001847      -0.00007456      -0.05773460
N        0.24582102      -0.21730668       0.02259606      -0.00009715       0.00008238       0.00044476       0.37766918
N        1.10293133      -0.97475223       0.10160590       0.00005683       0.00000331      -0.00022197      -0.26224375
