9
Properties=species:S:1:pos:R:3:forces:R:3:charge:R:1 formula=N9 topology=bicyclic-3-5 n_edges=10 n_rings=2 ff_energy=272.3417 mace_energy_eV=-13408.402623 delta_E_eV_atom=0.5401640178345133 sg=P1 energy=-708.436461285543 free_energy=-708.436461285543 dipole="-0.09199182544359862 -0.04065369547193723 -0.0839769143965864" pbc="F F F"
N       14.76401271      13.02556178      14.36920571       0.00000776       0.00002289       0.00002622      -0.03004410
N       13.53988435      13.37840535      14.57747784       0.00003767       0.00000108       0.00001395      -0.07738258
N       13.22982700      14.28821043      15.43914949       0.00006724       0.00002608       0.00004197      -0.03002982
N       13.82710067      14.99807974      16.20529576      -0.00006096      -0.00007108      -0.00007415       0.25800928
N       15.62548746      16.23662881      14.19500537       0.00001521       0.00001355      -0.00004409      -0.02521875
N       14.11700899      15.76125579      16.99072135       0.00000505       0.00003101       0.00001382      -0.18898948
N       15.84311242      13.33888968      14.79932500      -0.00007652      -0.00000410      -0.00000814       0.25800475
N       16.95193470      13.42810172      15.01363880       0.00001566      -0.00000413      -0.00001602      -0.18897016
N       16.17313843      17.14404281      13.90909838      -0.00001112      -0.00001530       0.00004642       0.02462086
