10
Properties=species:S:1:pos:R:3:forces:R:3:charge:R:1 formula=N10 topology=ring-5-substituted n_edges=10 n_rings=1 ff_energy=43.378 mace_energy_eV=-14902.145674 delta_E_eV_atom=0.14811026585175568 sg=P1 energy=-788.8152033449036 free_energy=-788.8152033449036 dipole="-0.13143556831142583 -0.42244797216220276 -0.4216633372645207" pbc="F F F"
N       15.94485716      15.60970094      15.36611474       0.00012095      -0.00001663       0.00028151      -0.15184262
N       15.59601990      12.92674198      17.20903051      -0.00002096       0.00000676      -0.00016451       0.02427240
N       15.32896657      12.92815025      12.89282104       0.00001648      -0.00018373      -0.00003291      -0.13223860
N       14.81934933      15.70690345      14.66583184      -0.00004365       0.00009911       0.00001753       0.29140504
N       15.91467994      16.60209063      16.16444617       0.00037273       0.00000109       0.00002262      -0.05474015
N       15.24015338      13.19682769      16.20580978       0.00001668      -0.00000760       0.00018147      -0.02864521
N       14.81796781      17.29503715      15.97280374      -0.00004491      -0.00006985       0.00004182      -0.05642585
N       14.98593022      13.87646958      13.37280240      -0.00003150       0.00028287      -0.00000789       0.33834617
N       14.42062941      14.87962609      13.70780158      -0.00004376      -0.00016630      -0.00012869      -0.11385300
N       14.12324607      16.75749339      15.04757668      -0.00034206       0.00005429      -0.00021095      -0.11627817
