10
Properties=species:S:1:pos:R:3:forces:R:3:charge:R:1 formula=N10 topology=bicyclic-3-5 n_edges=11 n_rings=2 ff_energy=251.1094 mace_energy_eV=-14898.525819 delta_E_eV_atom=0.5100958195453131 sg=P1 energy=-788.6253878183717 free_energy=-788.6253878183717 dipole="0.10480541522905654 -0.0023968483995728397 0.06765037271139505" pbc="F F F"
N       14.26666816      16.26180727      15.82052281      -0.00004261       0.00010255       0.00021645      -0.17789211
N       15.92663742      15.17989955      13.53208288       0.00002923       0.00002752      -0.00005311       0.29091028
N       14.58413863      13.26244440      15.54504328      -0.00001845      -0.00000662       0.00011100       0.29089820
N       14.11954487      17.16873186      16.58775277       0.00007317      -0.00029920      -0.00024826       0.30930216
N       15.40756526      15.42985084      15.79135363      -0.00012289      -0.00000563       0.00013911       0.10291935
N       16.13210794      15.58464255      14.64451681       0.00000933       0.00010485      -0.00014188      -0.13222464
N       13.71342883      18.04717205      17.15438606      -0.00002360       0.00017530       0.00004773      -0.18827294
N       16.02208737      14.91828349      12.44500911       0.00002935      -0.00003727       0.00010116      -0.18167753
N       15.12150278      14.14576257      16.15699357       0.00005632      -0.00017541      -0.00017429      -0.13225165
N       14.17003572      12.27019108      15.22371501       0.00001015       0.00011391       0.00000207      -0.18171111
