8
Properties=species:S:1:pos:R:3:forces:R:3:charge:R:1 formula=N8 topology=bicyclic-4-5-6 n_edges=10 n_rings=3 ff_energy=313.6522 mace_energy_eV=-11918.75664 delta_E_eV_atom=0.5180977617465032 sg=P1 energy=-629.154668860715 free_energy=-629.154668860715 dipole="0.010406558239338334 0.006416312635702243 0.009355355151429838" pbc="F F F"
N       14.30770805      14.02386844      14.42772067       0.00002554       0.00000080       0.00021899       0.08877692
N       15.61654540      15.52724332      13.61948236       0.00005145       0.00004114      -0.00002416      -0.03953339
N       15.91953487      15.36419413      16.84649367      -0.00005921       0.00023734       0.00029077      -0.01818894
N       13.76344398      14.83611295      15.21310613      -0.00008663       0.00013608       0.00006446      -0.05021856
N       13.69259928      16.07374333      14.64147571      -0.00009150      -0.00002372      -0.00019893      -0.04777487
N       15.06549513      14.28897816      13.46561454       0.00007611      -0.00002580       0.00007435      -0.04625489
N       15.82510864      15.05210386      17.89506693       0.00010590      -0.00035393      -0.00032147       0.01697585
N       14.75918624      16.33750210      14.03884148      -0.00002165      -0.00001191      -0.00010401       0.09621789
