9
Properties=species:S:1:pos:R:3:forces:R:3:charge:R:1 formula=N9 topology=bicyclic-4-4 n_edges=10 n_rings=2 ff_energy=166.9938 mace_energy_eV=-13409.3297 delta_E_eV_atom=0.43715543524422174 sg=P1 energy=-707.2400982977658 free_energy=-707.2400982977658 dipole="-0.08437579049065655 -0.19858342667609466 0.36366029224152135" pbc="F F F"
N       16.52228284      15.01696203      13.99708097      -0.00026078       0.00002914       0.00013196      -0.09462127
N       15.39616763      15.07420350      14.75112224       0.00033776       0.00000170      -0.00013012       0.12903944
N       14.63546388      13.83645764      16.50338988      -0.00012041      -0.00029085       0.00023181       0.30909459
N       13.77030202      16.63946523      13.84562741       0.00006604      -0.00006598       0.00009238       0.08668984
N       16.11402225      15.91332191      13.18107819       0.00017564      -0.00008369      -0.00006357      -0.11427994
N       14.24664250      13.06876304      17.21972542       0.00002768       0.00022939      -0.00019313      -0.15390488
N       14.97453441      16.15251413      13.95298762      -0.00021319      -0.00000500       0.00017958       0.11765636
N       15.13589093      14.82717268      16.03655279       0.00008691       0.00008555      -0.00014578      -0.12614587
N       13.24400143      17.40240893      13.13613464      -0.00009966       0.00009975      -0.00010314      -0.15352827
