9
Properties=species:S:1:pos:R:3:forces:R:3:charge:R:1 formula=N9 topology=branched-tree n_edges=8 n_rings=0 ff_energy=21.7201 mace_energy_eV=-13411.568823 delta_E_eV_atom=0.1883640567737075 sg=P1 energy=-706.9363730557287 free_energy=-706.9363730557287 dipole="-0.009407660399352168 -0.1469447392297875 0.09642062953612597" pbc="F F F"
N       15.73701419      14.19252800      15.52104065      -0.00013796      -0.00007717      -0.00002432      -0.05339007
N       14.71348755      13.54270104      15.37245216       0.00003534      -0.00005781       0.00002605       0.27633332
N       16.78545387      16.18063626      15.04626400       0.00007443       0.00008100       0.00000867      -0.18534248
N       14.07081486      15.64085265      13.84750995       0.00000226       0.00001574       0.00000552      -0.05716587
N       13.42322741      15.97145979      16.52294601      -0.00009358       0.00010710       0.00003291      -0.01791249
N       14.00557807      12.66275734      15.48181244       0.00011118       0.00014288      -0.00000798      -0.17259605
N       12.67315541      16.72198977      16.80545544       0.00009666      -0.00010189      -0.00003621       0.01679446
N       15.98953323      15.35415406      15.07185687      -0.00009773      -0.00009299      -0.00001464       0.21239045
N       13.86496936      16.54721705      13.24885237       0.00000941      -0.00001685       0.00001000      -0.01911127
