9
Properties=species:S:1:pos:R:3:forces:R:3:charge:R:1 formula=N9 topology=ring-4-substituted n_edges=9 n_rings=1 ff_energy=107.8465 mace_energy_eV=-13410.584206 delta_E_eV_atom=0.2977659270056847 sg=P1 energy=-706.9363730449663 free_energy=-706.9363730449663 dipole="0.07579205484483006 -0.03327617105692613 -0.1552891172256462" pbc="F F F"
N       15.36124906      16.42120909      14.90902251      -0.00011604       0.00001848       0.00018137       0.21236488
N       16.34871950      14.77204663      13.76656576       0.00003479      -0.00029874      -0.00004377       0.27633249
N       16.04952361      15.94125395      13.95464835       0.00014674       0.00022692      -0.00031779      -0.05340867
N       13.40010078      14.35968658      13.92121797       0.00041637       0.00022486      -0.00005122      -0.01793053
N       12.41527222      13.88667027      14.03109908      -0.00040511      -0.00022659       0.00006043       0.01681332
N       14.92476935      17.39407683      15.33356245      -0.00006291       0.00006346       0.00013260      -0.18531267
N       14.55126981      14.43784834      17.07023702      -0.00006397       0.00000468       0.00008664      -0.01910514
N       16.81831274      13.88153203      13.24325233       0.00000471      -0.00001883       0.00005089      -0.17258099
N       15.09742311      14.48459997      16.11013908       0.00004542       0.00000577      -0.00009914      -0.05717269
