5
Properties=species:S:1:pos:R:3:initial_charges:R:1:forces:R:3:charge:R:1 N5=T charge=1 mult=1 PG=C2v |=T CCSD(T)/6-311+G(2d)=T src:=T B=T p.24=T (CCSD(T)/6-311+G(2d))=T energy=-380.558433757995 free_energy=-380.558433757995 dipole="1.793215881455535 0.922659886358604 3.23134045119144e-17" pbc="F F F"
N        0.04312404      -0.48914636      -0.00000000       1.00000000       0.00018896       0.00003971       0.00000000       0.08604775
N        0.95704603       0.13052736       0.00000000       0.00000000      -0.00038998      -0.00015244      -0.00000000       0.37629475
N        2.04793059       0.65876495       0.00000000       0.00000000       0.00020652       0.00017745       0.00000000       0.07529553
N        2.61413898       1.73043996      -0.00000000       0.00000000      -0.00012284      -0.00003966       0.00000000       0.37628782
N        3.26551236       2.62204309      -0.00000000       0.00000000       0.00011734      -0.00002506      -0.00000000       0.08607415
