9
Properties=species:S:1:pos:R:3:forces:R:3:charge:R:1 formula=N9 topology=bicyclic-3-6-7 n_edges=11 n_rings=3 ff_energy=250.4334 mace_energy_eV=-13406.98336 delta_E_eV_atom=0.6978599391018179 sg=P1 energy=-709.0385529936868 free_energy=-709.0385529936868 dipole="0.057658906347166715 -0.2347060322433432 0.3151031271652185" pbc="F F F"
N       16.33711497      15.57267855      14.36211146       0.00010800      -0.00001220       0.00022911      -0.07190671
N       15.29001354      14.90554526      14.94007597      -0.00007538       0.00001668       0.00000664       0.17818865
N       16.14727605      15.95469897      13.19655713      -0.00004021       0.00006389      -0.00030131       0.00873810
N       14.98162965      15.78234070      12.59969651       0.00009869      -0.00010552       0.00000317      -0.09159576
N       14.65315293      13.83194311      16.82172404      -0.00032395      -0.00000763       0.00019094       0.31033916
N       14.06853094      13.33331998      17.64129645       0.00011381      -0.00008238      -0.00000975      -0.14868610
N       14.06267282      15.49179147      14.62030771      -0.00004024       0.00004047      -0.00010873      -0.13012085
N       15.48996107      14.26713320      16.08125195       0.00027263      -0.00002176      -0.00006438      -0.08759351
N       13.98381705      15.82596195      13.42239153      -0.00011335       0.00010844       0.00005431       0.03263702
