6
Properties=species:S:1:pos:R:3:forces:R:3:charge:R:1 formula=N6 topology=chain integrity=OK energy_eV=-8940.537387 delta_E_eV_atom=0.3999 sg=P1 energy=-473.296638885307 free_energy=-473.296638885307 dipole="2.9228329890052646e-06 -1.0772965076424465e-06 4.229717386790101e-05" pbc="F F F"
N        0.17176375       0.59514239      -0.26007578      -0.00022361      -0.00006652       0.00020501      -0.09145577
N        0.90678440       0.76779538      -1.18461640       0.00020887      -0.00008344      -0.00014148       0.29145006
N        1.53856726       1.21525788      -2.00310596      -0.00001512       0.00004114       0.00001298      -0.19999614
N       -0.17154997      -0.59514022       0.26024360      -0.00004664       0.00015087      -0.00001175      -0.09146322
N       -0.90681618      -0.76778217       1.18459961       0.00015720      -0.00000421      -0.00027557       0.29144756
N       -1.53874926      -1.21527327       2.00295493      -0.00008070      -0.00003784       0.00021081      -0.19998250
