10
 energy: -28.980270307433 gnorm: 0.000849889075 xtb: 6.6.1 (8d0f1dd)
N            1.71285922643790       -0.08060245970602       -0.05562386263125
N            1.24054611157007        1.21433016961676       -0.14261466511615
N            0.04239110037039        1.35836319367413        0.21551115215070
N           -0.72856106146954        0.36534974552377        0.49873350963961
N           -0.39191367178345       -0.74615878199420       -0.09044222751896
N            0.78373622917909       -0.99658405076204       -0.43906704048303
N            2.90294227238279       -0.40224579041084        0.22547275573837
N            3.76874400579478        0.52307690936392        0.48819524802732
N            3.71353961999821        1.72868813896049        0.47539527142395
N            3.96122321340384        2.82027357934301        0.55962360752784
