7
Properties=species:S:1:pos:R:3:forces:R:3:charge:R:1 formula=N7 topology=bicyclic-3-4 n_edges=8 n_rings=2 ff_energy=301.961 mace_energy_eV=-10429.614379 delta_E_eV_atom=0.41776648186828425 sg=P1 energy=-551.5064871961919 free_energy=-551.5064871961919 dipole="-0.00027056714229084343 -0.07434892723612174 -0.10773133344261872" pbc="F F F"
N       16.09715451      14.40752225      14.34594567       0.00004760      -0.00002257       0.00003480      -0.03200143
N       14.97775906      14.17804520      13.74472227       0.00003168      -0.00005815       0.00001229      -0.07831270
N       13.86103162      14.66141774      14.17650181      -0.00006657      -0.00002287      -0.00023219      -0.03199840
N       12.92571809      15.96897559      15.84504557       0.00018146      -0.00014271       0.00000283      -0.18156058
N       13.51552823      15.35507057      15.09787398      -0.00019552       0.00021607       0.00016617       0.25271661
N       17.04135739      15.50140869      16.15715295       0.00001698       0.00008360      -0.00001797      -0.18156489
N       16.44751854      15.02204499      15.32014539      -0.00001564      -0.00005336       0.00003408       0.25272138
