10
Properties=species:S:1:pos:R:3:forces:R:3:charge:R:1 formula=N10 topology=ring-5-substituted n_edges=10 n_rings=1 ff_energy=39.3499 mace_energy_eV=-14901.856187 delta_E_eV_atom=0.17705904124773042 sg=P1 energy=-789.383313108809 free_energy=-789.383313108809 dipole="-0.22250595691087685 0.04096564564684352 -0.6875252462666585" pbc="F F F"
N       14.42129984      15.45731603      12.43441383       0.00000020      -0.00004656       0.00011034       0.30266503
N       14.26599513      14.73166709      18.00269712       0.00000657      -0.00003997      -0.00003343      -0.09777362
N       14.46586157      15.60510780      11.32027405      -0.00001747       0.00002524      -0.00002055      -0.14392363
N       15.22247112      14.82189640      18.82288480       0.00005711       0.00006194       0.00000456      -0.05172120
N       16.09801313      15.23344431      16.93765069      -0.00001595      -0.00002557       0.00004427      -0.11801393
N       16.34013855      15.12818041      18.17195441      -0.00002897      -0.00003684      -0.00001579      -0.04969137
N       14.02712571      15.23942144      13.54685289       0.00019068      -0.00001327       0.00019424      -0.02319886
N       14.05456631      14.97541898      15.70849126      -0.00010931      -0.00008360       0.00000393      -0.09213212
N       14.79102503      14.98616858      16.81029661       0.00003201       0.00006844       0.00014217       0.27453520
N       14.70404240      15.23702234      14.65781539      -0.00011487       0.00009019      -0.00042974      -0.00074550
