10
Properties=species:S:1:pos:R:3:forces:R:3:charge:R:1 formula=N10 topology=branched-tree n_edges=9 n_rings=0 ff_energy=27.0221 mace_energy_eV=-14903.318918 delta_E_eV_atom=0.030785923583607655 sg=P1 energy=-787.1089799960181 free_energy=-787.1089799960181 dipole="-0.008099074020949296 -0.001187880491968321 -0.013242593754530498" pbc="F F F"
N       16.54451013      15.26007595      15.09916862       0.00022696      -0.00000800      -0.00029639       0.29460857
N       14.72527501      14.80242364      16.35842738       0.00007965      -0.00015544      -0.00001839      -0.08432511
N       17.48059193      15.22607391      14.47229362       0.00013518      -0.00006642      -0.00000637      -0.21014251
N       12.98469438      16.22637239      14.15802976       0.00000504      -0.00002389       0.00003325      -0.01069210
N       13.70486446      15.13995260      16.87560062      -0.00015965      -0.00000427       0.00017648       0.29460563
N       14.52935740      13.77610230      13.41894255      -0.00008555      -0.00009904      -0.00012968      -0.01068338
N       12.41770167      16.62722502      13.30749946      -0.00001611       0.00002429      -0.00004328       0.01058282
N       15.60143322      15.60888068      15.74071043      -0.00027545       0.00018176       0.00019151      -0.08433639
N       14.05499223      13.22348575      12.59726006       0.00009586       0.00010648       0.00014341       0.01057273
N       12.72605618      15.16771143      17.43376822      -0.00000592       0.00004452      -0.00005054      -0.21019026
