6
Properties=species:S:1:pos:R:3:forces:R:3:charge:R:1 formula=N6 topology=bicyclic-3-3-4 n_edges=8 n_rings=3 ff_energy=546.5947 mace_energy_eV=-8935.716014 delta_E_eV_atom=1.0766753220270857 sg=P-1 energy=-467.8354499722322 free_energy=-467.8354499722322 dipole="1.6118234234187592e-05 -2.833517953448124e-05 1.3473726056797725e-05" pbc="F F F"
N       14.31832742      15.01849560      14.12591129       0.00003134      -0.00012289      -0.00026353      -0.00954650
N       14.16636617      15.53655657      15.49620193      -0.00004922       0.00009824       0.00026644      -0.00954612
N       14.27995698      16.28050453      14.43603657      -0.00011764       0.00025773      -0.00010606       0.01908166
N       15.83363166      14.46344500      14.50379574      -0.00000310      -0.00016604      -0.00002872      -0.00954731
N       15.68167438      14.98150377      15.87409016       0.00000063      -0.00012523       0.00013415      -0.00954694
N       15.72004340      13.71949451      15.56396433       0.00013799       0.00005820      -0.00000228       0.01910522
