5
Properties=species:S:1:pos:R:3:initial_charges:R:1:forces:R:3:charge:R:1 N5=T charge=-1 mult=1 PG=D3h |=T B3LYP/aug-cc-pVDZ=T src:=T B=T p.26=T (B3LYP/aug-cc-pVDZ)=T energy=-393.31055830886424 free_energy=-393.31055830886424 dipole="1.93538014509533e-06 1.3153458531160233e-06 -1.5690418678274899e-15" pbc="F F F"
N       -0.00000116       0.00000001       0.93533522      -1.00000000      -0.00000849       0.00000153      -0.00004919      -0.07167035
N       -0.00000116       0.00000001      -0.93533522       0.00000000      -0.00000849       0.00000153       0.00004919      -0.07167035
N        1.14069643      -0.00000013      -0.00000000       0.00000000       0.00017198       0.00000509       0.00000000      -0.28555133
N       -0.57034767       0.98787814       0.00000000       0.00000000      -0.00007220       0.00011957       0.00000000      -0.28555331
N       -0.57034745      -0.98787803       0.00000000       0.00000000      -0.00008279      -0.00012772      -0.00000000      -0.28555467
