6
Properties=species:S:1:pos:R:3:forces:R:3:charge:R:1 formula=N6 topology=bicyclic-3-5 n_edges=7 n_rings=2 ff_energy=266.9754 mace_energy_eV=-8937.710528 delta_E_eV_atom=0.7442562938574611 sg=P1 energy=-472.1504913392589 free_energy=-472.1504913392589 dipole="0.015902221945265013 -0.007289575502956912 -0.012971940425841069" pbc="F F F"
N       15.18461391      13.78343303      15.40622410       0.00031441      -0.00031111       0.00004342       0.00926397
N       14.63382283      15.22052469      13.92317251      -0.00001457       0.00030230      -0.00009284       0.00931142
N       14.23348298      14.22742629      14.64958486      -0.00002373       0.00007958       0.00019676      -0.01857907
N       15.99368366      14.62727850      15.92339630      -0.00023032      -0.00006359       0.00017703       0.00931281
N       15.44297134      16.06433521      14.44027794       0.00004423       0.00004891      -0.00013709       0.00926732
N       15.82116547      15.88320639      15.66439295      -0.00009002      -0.00005609      -0.00018728      -0.01857645
