10
Properties=species:S:1:pos:R:3:forces:R:3:charge:R:1 formula=N10 topology=ring-5-substituted n_edges=10 n_rings=1 ff_energy=39.8501 mace_energy_eV=-14902.576145 delta_E_eV_atom=0.10506324430571112 sg=P1 energy=-788.81520336747 free_energy=-788.81520336747 dipole="0.10491047231202495 0.37388967774969817 0.4719252549245014" pbc="F F F"
N       13.65562789      14.41884688      14.50342847       0.00003975      -0.00006448       0.00000791       0.29140119
N       14.24303779      14.65379543      13.33450384      -0.00007195       0.00010058       0.00002076      -0.15183319
N       13.85406424      13.70284382      12.58120473       0.00001825      -0.00007536       0.00002600      -0.05473940
N       13.77321734      15.15706099      15.59997380       0.00000532      -0.00006031      -0.00003593      -0.11384211
N       17.44001827      14.17807412      13.85304451      -0.00014625       0.00003677       0.00013184       0.02425193
N       13.05440916      12.90511378      13.24744513       0.00001623       0.00000132       0.00000848      -0.05642914
N       14.48342203      16.11554888      15.72250603       0.00003209      -0.00000896      -0.00005248       0.33834565
N       16.62723083      14.55639545      14.48730743       0.00014117      -0.00003495      -0.00012480      -0.02862833
N       15.04444547      17.01873918      16.06436840      -0.00001503       0.00002950       0.00004067      -0.13225420
N       12.91732282      13.33016502      14.44250998      -0.00001959       0.00007588      -0.00002246      -0.11627240
