8
Properties=species:S:1:pos:R:3:forces:R:3:charge:R:1 formula=N8 topology=bicyclic-4-4 n_edges=9 n_rings=2 ff_energy=174.6598 mace_energy_eV=-11917.819489 delta_E_eV_atom=0.6352416114486914 sg=P1 energy=-627.4300879501079 free_energy=-627.4300879501079 dipole="0.1204087827527088 -0.5059650609806142 0.2226504739391914" pbc="F F F"
N       15.86200764      14.20933095      15.14920255       0.00001612      -0.00017006       0.00010184       0.28837991
N       15.66621760      15.23197827      14.53724543       0.00003124       0.00002904      -0.00007587       0.14554063
N       16.41598727      16.41145040      14.13732462       0.00025624      -0.00006409       0.00006633      -0.16228808
N       12.40719619      15.87452900      16.44310040      -0.00028712       0.00014836       0.00004192       0.01101261
N       13.33560214      15.32341178      16.23814428       0.00028697      -0.00013349      -0.00004239      -0.02466678
N       15.31909000      16.96716094      13.75520127      -0.00017328       0.00005660      -0.00004418      -0.01341704
N       16.05843042      13.25811469      15.71118575      -0.00001895       0.00010208      -0.00004140      -0.07819417
N       14.52706918      15.99797674      14.07045700      -0.00011121       0.00003154      -0.00000626      -0.16636708
