9
Properties=species:S:1:pos:R:3:forces:R:3:charge:R:1 formula=N9 topology=ring-4-substituted n_edges=9 n_rings=1 ff_energy=104.3498 mace_energy_eV=-13409.878697 delta_E_eV_atom=0.3761558120506834 sg=P1 energy=-709.4642356862593 free_energy=-709.4642356862593 dipole="0.024513203193546235 -0.043003002829362404 -0.1071043931746045" pbc="F F F"
N       15.06540933      14.48200032      14.09901458       0.00002248      -0.00000220       0.00023149       0.01556204
N       14.96201174      14.07783665      12.90705982      -0.00002304       0.00005418      -0.00048711      -0.04974279
N       15.29490594      14.83470329      11.90509108       0.00006675       0.00008072       0.00009529      -0.04540923
N       14.98613721      14.21698492      16.29194691       0.00010864       0.00004478      -0.00005927      -0.05797961
N       14.48331036      13.99622958      15.09215127      -0.00000365      -0.00001264      -0.00003546      -0.04699591
N       15.38593151      16.02159091      11.74292811      -0.00004811      -0.00022290      -0.00008441       0.28000206
N       14.28029221      13.87976867      18.45916873       0.00003401      -0.00009581       0.00002893      -0.19398814
N       15.52607393      17.05346029      11.31031308      -0.00002145       0.00006311       0.00008202      -0.18503009
N       14.48383329      13.99121712      17.35319781      -0.00013563       0.00009076       0.00022851       0.28358167
