7
Properties=species:S:1:pos:R:3:initial_charges:R:1:forces:R:3:charge:R:1 N7=T charge=-1 mult=1 PG=C2v |=T B3LYP/aug-cc-pVDZ=T src:=T B=T p.41=T (B3LYP/aug-cc-pVDZ)=T -=T chaine=T en=T W=T energy=-558.3578968734703 free_energy=-558.3578968734703 dipole="-3.2021208410569155 0.870725809444183 3.4255216406661396e-15" pbc="F F F"
N        0.02931061       0.35535067      -0.00000000      -1.00000000      -0.00007713      -0.00008934      -0.00000000      -0.41987450
N        1.12199581      -0.02439103      -0.00000000       0.00000000       0.00001691       0.00008919      -0.00000000       0.18959797
N        2.30394718      -0.10727369       0.00000000       0.00000000       0.00011133       0.00004227       0.00000000      -0.12363360
N        3.07744394      -1.21291461      -0.00000000       0.00000000       0.00010298       0.00014704      -0.00000000      -0.29218479
N        4.38100486      -0.86433529      -0.00000000       0.00000000      -0.00004116      -0.00031171      -0.00000000      -0.12364771
N        5.33902052      -1.56154062       0.00000000       0.00000000      -0.00041532       0.00013432       0.00000000       0.18960602
N        6.41971808      -1.97415143       0.00000000       0.00000000       0.00030239      -0.00001178      -0.00000000      -0.41986340
