8
Properties=species:S:1:pos:R:3:forces:R:3:charge:R:1 formula=N8 topology=ring-4-substituted n_edges=8 n_rings=1 ff_energy=101.7477 mace_energy_eV=-11918.838108 delta_E_eV_atom=0.5079141843252728 sg=P1 energy=-630.1945647220383 free_energy=-630.1945647220383 dipole="0.01591041086372764 0.010110677048932024 0.010197485854641253" pbc="F F F"
N       14.69142292      14.02045474      14.75074745       0.00020148       0.00006951       0.00019086      -0.08749671
N       14.00448356      13.95390748      13.77751822      -0.00026252      -0.00006900      -0.00006543       0.28876311
N       14.25863192      14.08332015      16.02021501       0.00021865      -0.00000292       0.00012672      -0.08940774
N       14.94728300      14.19722593      16.98813160      -0.00012312      -0.00003820      -0.00011784       0.29795074
N       13.61982367      13.88448297      12.72028542       0.00000831       0.00002200      -0.00021647      -0.20483050
N       17.33992827      17.01813248      15.37151286       0.00013300       0.00015256      -0.00027178       0.01189222
N       15.33415971      14.29007851      18.04209441      -0.00003029       0.00001546       0.00008793      -0.20508271
N       16.57251188      16.27329108      15.61994224      -0.00014552      -0.00014941       0.00026600      -0.01178841
