8
Properties=species:S:1:pos:R:3:forces:R:3:charge:R:1 formula=N8 topology=ring-4-substituted n_edges=8 n_rings=1 ff_energy=91.9855 mace_energy_eV=-11919.070637 delta_E_eV_atom=0.47884811805920435 sg=P1 energy=-630.1945647311514 free_energy=-630.1945647311514 dipole="0.009177570133058416 0.013931661171488217 0.013717393351652772" pbc="F F F"
N       13.74047003      14.86708599      15.37288643      -0.00005215       0.00009047       0.00006996      -0.08941389
N       14.56502755      14.24638360      13.36145626      -0.00012801       0.00003428      -0.00000834       0.28877310
N       16.52474593      16.31243828      16.05639167      -0.00027926      -0.00012121       0.00000295      -0.01181270
N       13.36595332      16.19334720      17.21361999      -0.00011080       0.00000921       0.00008897      -0.20505949
N       13.63395178      15.66043014      16.25794857       0.00013593      -0.00005790      -0.00005193       0.29793217
N       14.41673613      15.05303217      14.22795074       0.00002200      -0.00005371      -0.00009646      -0.08744181
N       17.51526915      16.76575894      16.19349029       0.00031764       0.00014032       0.00001479       0.01191741
N       14.85450037      13.70810496      12.41435756       0.00009466      -0.00004146      -0.00001993      -0.20489479
