9
Properties=species:S:1:pos:R:3:forces:R:3:charge:R:1 formula=N9 topology=ring-3-substituted n_edges=9 n_rings=1 ff_energy=286.6452 mace_energy_eV=-13410.644618 delta_E_eV_atom=0.2910534888271741 sg=P1 energy=-708.5292039911205 free_energy=-708.5292039911205 dipole="0.02974600817019808 -0.01510801959284101 -0.02184873981516451" pbc="F F F"
N       14.47226420      15.39520273      14.98374028       0.00000761      -0.00007652       0.00013927      -0.10252972
N       12.48662317      13.38947139      13.12988357       0.00013728       0.00009262      -0.00001821      -0.18686005
N       16.89317108      17.00795642      16.69861277      -0.00000570      -0.00005938      -0.00005711      -0.18689806
N       15.29843059      12.43123755      15.92570761      -0.00012697      -0.00003879       0.00009884      -0.00465762
N       15.71286062      15.52265642      15.38670514       0.00008877       0.00011104      -0.00019861      -0.03731210
N       16.19325439      16.36505267      16.08430624      -0.00002894       0.00007815       0.00015832       0.28006314
N       16.01813170      13.01994572      16.51176764       0.00010280       0.00001321      -0.00004487      -0.00465330
N       14.27815295      14.34455260      14.22469233       0.00013411       0.00001412       0.00000167      -0.03724587
N       13.26758855      13.96258647      13.71486679      -0.00030894      -0.00013445      -0.00007930       0.28009359
