10
Properties=species:S:1:pos:R:3:forces:R:3:charge:R:1 formula=N10 topology=bicyclic-3-6-7 n_edges=12 n_rings=3 ff_energy=314.011 mace_energy_eV=-14896.647502 delta_E_eV_atom=0.697927501880713 sg=P1 energy=-787.817492782781 free_energy=-787.817492782781 dipole="-0.1419888587758943 -0.1928714420206449 0.23399940365398741" pbc="F F F"
N       17.02127957      13.61946650      15.30828642       0.00011453      -0.00008480       0.00036867      -0.13098904
N       17.55477355      13.45541693      16.37303533      -0.00004213       0.00012029      -0.00027475       0.30662797
N       17.16569303      15.50282330      13.72213971       0.00038081      -0.00006776      -0.00003225      -0.12339516
N       16.00727249      15.97360820      13.40657900      -0.00012573       0.00002451       0.00002795      -0.12346090
N       16.64692865      14.78150249      14.75772605       0.00002980       0.00008614      -0.00004945       0.11431138
N       14.23837414      15.26044461      14.97059685      -0.00017374      -0.00027597      -0.00011296      -0.13096859
N       13.18535057      14.71966533      14.76105572       0.00038503       0.00018977       0.00005333       0.30663036
N       15.37241211      15.12934172      14.27032829      -0.00028206       0.00009521       0.00003292       0.11427596
N       18.05982438      12.99039261      17.25861010      -0.00005620      -0.00004602      -0.00004715      -0.16650087
N       12.10968009      14.41046885      14.81487843      -0.00023032      -0.00004137       0.00003369      -0.16653112
