9
Properties=species:S:1:pos:R:3:forces:R:3:charge:R:1 formula=N9 topology=bicyclic-3-4 n_edges=10 n_rings=2 ff_energy=373.5985 mace_energy_eV=-13407.159028 delta_E_eV_atom=0.6783413104660667 sg=P1 energy=-707.4576419140586 free_energy=-707.4576419140586 dipole="-0.08723940826712269 0.015122014974386236 0.39815087800970583" pbc="F F F"
N       14.89199990      14.95356465      16.37290324      -0.00010939      -0.00020592       0.00036184      -0.10192348
N       14.74528728      14.66107725      12.87152153       0.00002022      -0.00006202       0.00016346       0.06119901
N       14.23982446      16.07180286      14.42829239      -0.00012689       0.00013315      -0.00033895       0.00023309
N       16.07981822      14.60050174      13.11480676      -0.00022965      -0.00001557       0.00007665      -0.14608743
N       15.28690448      14.08668506      14.09544380       0.00011200       0.00002722      -0.00024551      -0.04196004
N       15.82604494      14.69118818      17.08347871       0.00003735      -0.00018094       0.00016422       0.31006987
N       16.46771413      14.37818610      17.94714767      -0.00011701       0.00025115      -0.00030184      -0.14805739
N       14.90294381      15.14648594      15.06422473       0.00029146      -0.00000016      -0.00000396       0.14669232
N       14.09915401      15.86751486      13.22559572       0.00012190       0.00005309       0.00012409      -0.08016595
