10
Properties=species:S:1:pos:R:3:forces:R:3:charge:R:1 formula=N10 topology=bicyclic-3-3 n_edges=11 n_rings=2 ff_energy=500.6716 mace_energy_eV=-14900.674617 delta_E_eV_atom=0.2952159636124634 sg=P1 energy=-788.9958814797341 free_energy=-788.9958814797341 dipole="0.07188879079766482 -0.10396894009481213 0.0053406311948456" pbc="F F F"
N       19.19917374      13.87366576      13.49634188      -0.00011104      -0.00007081       0.00006479      -0.19164115
N       18.19976069      13.40892626      13.72657916       0.00028037       0.00018619      -0.00008311       0.28338310
N       17.27209103      12.66504282      13.87740348       0.00000610      -0.00012119      -0.00009954      -0.05981529
N       16.04247758      12.81440404      14.31070980      -0.00009348      -0.00028675       0.00006520      -0.06877334
N       13.12037003      15.58107457      16.20339330       0.00011426      -0.00010340      -0.00013714      -0.08173501
N       14.70906149      14.34808062      15.33087970      -0.00020455       0.00010817      -0.00008179       0.07079681
N       12.11961335      16.22982392      16.22842007       0.00040725      -0.00007680      -0.00007037       0.29140655
N       13.70458526      15.04790623      15.12026177       0.00000841      -0.00003809       0.00016675      -0.06874625
N       15.65068468      13.95650128      14.67260015       0.00001160       0.00025953       0.00007716       0.02618118
N       11.22807995      16.84808974      16.53464227      -0.00041891       0.00014316       0.00009805      -0.20105661
