6
Properties=species:S:1:pos:R:3:forces:R:3:charge:R:1 formula=N6 topology=chain integrity=OK energy_eV=-8940.537495 delta_E_eV_atom=0.3999 sg=P1 energy=-473.2966388766045 free_energy=-473.2966388766045 dipole="2.908842292032826e-05 -5.957891639719173e-05 1.529016302968415e-06" pbc="F F F"
N        0.04580553       0.34735472      -0.57322627      -0.00011683       0.00000074       0.00000939      -0.09145279
N        0.87178986      -0.72282014       1.23797812      -0.00004438      -0.00004608      -0.00009108       0.29144754
N       -0.04579725      -0.34763732       0.57305512       0.00001850       0.00008847      -0.00005930      -0.09146248
N       -0.87178869       0.72283947      -1.23796823       0.00022562       0.00003619       0.00037963       0.29145478
N        1.52025645      -1.18540255       2.03472353       0.00006320      -0.00004750       0.00007038      -0.19998281
N       -1.52026590       1.18566583      -2.03456227      -0.00014612      -0.00003182      -0.00030902      -0.20000424
