8
Properties=species:S:1:pos:R:3:forces:R:3:charge:R:1 formula=N8 topology=ring-5-subst integrity=OK energy_eV=-11921.740702 delta_E_eV_atom=0.2719 sg=P1 energy=-631.8654177697535 free_energy=-631.8654177697535 dipole="-0.041791083282212066 -0.5689909988328228 -0.20243076219184766" pbc="F F F"
N        1.32965579       0.95835175      -0.13673560      -0.00001970       0.00000413       0.00002892      -0.11426080
N        0.30121519       0.13732561      -0.06144058      -0.00001955      -0.00005647      -0.00005901       0.28475983
N        0.32138184      -1.10044943      -0.54393572      -0.00007025      -0.00001996      -0.00004006      -0.11570632
N       -0.72277775       0.72323672       0.55189549      -0.00005214      -0.00000270      -0.00003375      -0.14909034
N       -0.58699884      -1.88203151      -0.49957109       0.00016566       0.00007279      -0.00002743       0.33000368
N       -1.27596103      -2.75839126      -0.57472173      -0.00004939      -0.00002121       0.00006878      -0.13028337
N       -0.30169628       1.88930472       0.83943370      -0.00000230       0.00005763       0.00003580      -0.04997930
N        0.93518109       2.03265341       0.42507554       0.00004767      -0.00003422       0.00002676      -0.05544336
