3
Properties=species:S:1:pos:R:3:initial_charges:R:1:forces:R:3:charge:R:1 N3=T charge=-1 mult=1 PG=Dinfh |=T CCSD(T)/aug-cc-pVTZ=T src:=T B=T p.14=T (CCSD(T)/aug-cc-pVTZ)=T energy=-242.08901283271547 free_energy=-242.08901283271547 dipole="-1.1897612147560144 6.991649775153221e-17 -8.99796200456326e-17" pbc="F F F"
N        0.03100546      -0.00000000       0.00000000      -1.00000000       0.00003560       0.00000000      -0.00000000      -0.60412445
N        1.18970013       0.00000000      -0.00000000       0.00000000      -0.00031833      -0.00000000      -0.00000000       0.20830245
N        2.34839440      -0.00000000      -0.00000000       0.00000000       0.00028274       0.00000000       0.00000000      -0.60417801
