4
Properties=species:S:1:pos:R:3:forces:R:3:charge:R:1 formula=N4 topology=chain integrity=OK energy_eV=-5953.506751 delta_E_eV_atom=2.1128 sg=P1 energy=-311.15971919254724 free_energy=-311.15971919254724 dipole="0.009311780357744982 0.0054511837239589744 0.004361240787477934" pbc="F F F"
N        0.48075896      -0.03026328      -0.63880801      -0.00000765       0.00002886       0.00008406       0.10404860
N        0.27058260      -0.96737619       0.27689342       0.00001237      -0.00008783      -0.00005926      -0.10406337
N       -0.26871802       0.15408468       0.73767713      -0.00002651       0.00022597      -0.00023019       0.10407092
N       -0.48262354       0.84355479      -0.37576253       0.00002178      -0.00016700       0.00020539      -0.10405616
