4
Properties=species:S:1:pos:R:3:forces:R:3:charge:R:1 formula=N4 topology=ring-3-subst integrity=OK energy_eV=-5958.570331 delta_E_eV_atom=0.8469 sg=P1 energy=-311.3566821970355 free_energy=-311.3566821970355 dipole="-0.12085457082683604 -0.13403750623027333 -0.12208437005960812" pbc="F F F"
N       -0.99944761      -0.15329596      -0.45257074      -0.00016303       0.00004959      -0.00001738      -0.05772956
N        0.18236689       0.20235194       0.18426803       0.00007897       0.00003424      -0.00000228       0.37767266
N        0.81822746       0.90775094       0.82668337      -0.00000270      -0.00000129       0.00002333      -0.26219532
N       -0.00114675      -0.95680690      -0.55838066       0.00008676      -0.00008253      -0.00000366      -0.05774779
