9
Properties=species:S:1:pos:R:3:forces:R:3:charge:R:1 formula=N9 topology=bicyclic-3-4 n_edges=10 n_rings=2 ff_energy=318.2545 mace_energy_eV=-13408.853196 delta_E_eV_atom=0.49010033148260845 sg=P1 energy=-707.6451644308112 free_energy=-707.6451644308112 dipole="-0.06917421174350533 0.05293086538401516 -0.08520319651773932" pbc="F F F"
N       15.73857722      16.92613921      15.24503869       0.00005729       0.00023585      -0.00014901       0.29945513
N       14.11987893      15.49675922      15.96475575       0.00001851       0.00001822       0.00007390       0.06648008
N       14.53647960      12.94849497      13.72882373       0.00013991      -0.00008523      -0.00013633       0.29943602
N       14.60949258      13.34800605      14.85386792       0.00020197      -0.00009092      -0.00007888      -0.11455908
N       13.72131987      14.17784319      15.46245036      -0.00014340       0.00003458      -0.00007672       0.06664679
N       15.39604371      15.94966170      15.84487170      -0.00021777      -0.00011278       0.00028965      -0.11464071
N       13.84906756      14.45134749      16.78352780       0.00004832       0.00005217       0.00003213      -0.15280688
N       14.71262143      12.43362602      12.74592171      -0.00015246       0.00008031       0.00010231      -0.17498838
N       16.32331803      17.76428991      14.77836614       0.00004764      -0.00013218      -0.00005706      -0.17502297
