10
Properties=species:S:1:pos:R:3:forces:R:3:charge:R:1 formula=N10 topology=ring-5-substituted n_edges=10 n_rings=1 ff_energy=44.0245 mace_energy_eV=-14901.621796 delta_E_eV_atom=0.20049811884928204 sg=P1 energy=-784.4946585403973 free_energy=-784.4946585403973 dipole="-0.14576394730389974 -0.03343266643363342 -0.0114857399802178" pbc="F F F"
N       15.56521235      13.83995694      13.23893660       0.00032694       0.00005086       0.00019318      -0.09976712
N       14.36261539      13.91746514      12.91139564      -0.00042434       0.00020099      -0.00000360       0.01678601
N       14.17268362      16.06259407      16.27247069       0.00014982       0.00012719      -0.00014274      -0.00265587
N       15.85270243      15.03919160      13.90417278       0.00002296       0.00017406       0.00003322       0.33294084
N       13.82856751      15.04491925      13.28715347      -0.00001041      -0.00034778      -0.00014693       0.00871941
N       14.57378102      13.32105388      16.06601216      -0.00015640      -0.00019598      -0.00010413      -0.01564419
N       13.34429024      16.71322910      16.58335524      -0.00006175       0.00047215       0.00004526       0.01256445
N       14.18224333      12.74622372      16.91559427       0.00022669      -0.00035121      -0.00003958       0.01442146
N       14.65202610      15.77249529      13.88348238       0.00008775      -0.00008603       0.00003930      -0.10230658
N       16.90247930      15.37881125      14.37543592      -0.00016126      -0.00004425       0.00012601      -0.16505841
