8
Properties=species:S:1:pos:R:3:forces:R:3:charge:R:1 formula=N8 topology=branched-tree n_edges=7 n_rings=0 ff_energy=14.6537 mace_energy_eV=-11920.681474 delta_E_eV_atom=0.27749341977437325 sg=P1 energy=-631.0770093099313 free_energy=-631.0770093099313 dipole="-0.05013973939725802 -0.04683496326476253 0.036733983037330976" pbc="F F F"
N       15.09837777      14.97214022      16.20882515      -0.00001035      -0.00001020       0.00007486      -0.06294964
N       16.24369978      14.78149012      12.64528919      -0.00005238      -0.00006281       0.00008314      -0.17787702
N       15.86112623      15.65011247      15.57576974       0.00010820       0.00010192      -0.00007335       0.26725785
N       16.59812358      16.42700334      15.22729887      -0.00006977      -0.00004873       0.00002253      -0.17786777
N       14.77338121      13.46198005      13.83957056      -0.00009998      -0.00010039       0.00000741      -0.06294326
N       15.55453433      14.22618409      13.34159661       0.00015599       0.00015093      -0.00013469       0.26725975
N       14.19493097      13.26169344      14.99816565      -0.00001225      -0.00001137       0.00000312      -0.02644006
N       14.33673711      13.92062673      16.03194893      -0.00001945      -0.00001934       0.00001700      -0.02643984
