6
Properties=species:S:1:pos:R:3:forces:R:3:charge:R:1 formula=N6 topology=bicyclic-3-4-4 n_edges=8 n_rings=3 ff_energy=558.6393 mace_energy_eV=-8942.820985 delta_E_eV_atom=-0.10748642822750298 sg=P1 energy=-468.04469053649194 free_energy=-468.04469053649194 dipole="-0.002765844426439853 -0.011731504009153751 0.007452531704448824" pbc="F F F"
N       15.39847553      13.75802017      15.97688267       0.00003071       0.00014074       0.00024876       0.10483079
N       14.07051595      13.54498531      15.15218215       0.00000548       0.00025130       0.00009508       0.10484432
N       15.25880412      13.02058471      14.88325879       0.00002272      -0.00022611      -0.00021219      -0.09747637
N       14.38939933      14.61433750      15.87150729      -0.00004260      -0.00016836      -0.00012640      -0.10973616
N       15.37765094      16.23519488      13.86466436       0.00010213      -0.00031067      -0.00010874      -0.00856629
N       15.12763588      17.29700710      13.99176342      -0.00011845       0.00031309       0.00010348       0.00610371
