9
Properties=species:S:1:pos:R:3:initial_charges:R:1:forces:R:3:charge:R:1 N9=T charge=-1 mult=1 PG=C2 |=T B3LYP/aug-cc-pVDZ=T src:=T B=T p.60=T (B3LYP/aug-cc-pVDZ)=T -=T "twisted W"=T energy=-716.8912999905243 free_energy=-716.8912999905243 dipole="-4.25951291321936 1.2338498470723784 -4.1165179778289426e-16" pbc="F F F"
N        0.11667511       0.46919358       0.00000000      -1.00000000       0.00002025       0.00022681       0.00000000      -0.37056179
N        1.18025381       0.03598861       0.00000000       0.00000000      -0.00003095      -0.00013203      -0.00000000       0.22268919
N        2.35950102      -0.08835457      -0.00000000       0.00000000      -0.00002784      -0.00014897      -0.00000000      -0.11981214
N        3.07082716      -1.25034757       0.00000000       0.00000000       0.00005252       0.00001998       0.00000000      -0.19010768
N        4.33615954      -1.02891197      -0.00000000       0.00000000      -0.00005129      -0.00000897      -0.00000000      -0.08443060
N        5.14570672      -2.02627485       0.00000000       0.00000000      -0.00016186       0.00011015       0.00000000      -0.19009345
N        6.44493283      -1.61615317      -0.00000000       0.00000000       0.00001562      -0.00013823      -0.00000000      -0.11980350
N        7.41641294      -2.29608854       0.00000000       0.00000000      -0.00010202       0.00009757       0.00000000       0.22268716
N        8.50328387      -2.66700152      -0.00000000       0.00000000       0.00028556      -0.00002631      -0.00000000      -0.37056720
