5
Properties=species:S:1:pos:R:3:forces:R:3:charge:R:1 formula=N5 topology=ring-5 n_edges=5 n_rings=1 ff_energy=32.7821 mace_energy_eV=-7450.008277 delta_E_eV_atom=0.36102224107639813 sg=P1 energy=-392.98171106289556 free_energy=-392.98171106289556 dipole="-1.2275462208250776e-05 6.975751976989972e-06 1.991059092201378e-06" pbc="F F F"
N       15.80712931      14.49843223      14.29593257      -0.00028236       0.00017989       0.00031239      -0.00000399
N       15.89849295      14.54190905      15.59042953      -0.00016759       0.00007470      -0.00025454      -0.00000359
N       14.70264745      15.08793574      13.95163116       0.00019446      -0.00009207       0.00022162       0.00000113
N       14.85047720      15.15828190      16.04616242       0.00013537      -0.00009152      -0.00022226       0.00000214
N       14.11140703      15.49574358      15.03333328       0.00012011      -0.00007100      -0.00005721       0.00000431
