9
Properties=species:S:1:pos:R:3:forces:R:3:charge:R:1 formula=N9 topology=branched-tree n_edges=8 n_rings=0 ff_energy=16.8177 mace_energy_eV=-13410.822161 delta_E_eV_atom=0.271326534389118 sg=P1 energy=-708.5270427650518 free_energy=-708.5270427650518 dipole="0.12097681175121798 0.00019929111715700706 -0.07237179383716552" pbc="F F F"
N       16.43926822      14.83728622      15.34502453       0.00003421      -0.00000316       0.00006585      -0.08832129
N       15.15258676      14.64763326      15.61329359       0.00001274      -0.00000804      -0.00013751      -0.07494203
N       12.81978761      16.26663027      13.96928313      -0.00020993       0.00009495       0.00006998       0.00785007
N       14.60924204      14.72366897      16.67670396      -0.00017289      -0.00000782       0.00027038       0.27943922
N       16.81825742      14.71390780      14.13328279       0.00000515      -0.00000373      -0.00002467      -0.01119124
N       13.85268972      14.72851902      17.51687914       0.00013968       0.00000207      -0.00012394      -0.19147958
N       16.29931891      14.45623347      13.07835975      -0.00000739      -0.00000167      -0.00005614       0.27684093
N       16.10064923      14.24045194      11.98600770      -0.00001586       0.00003797       0.00004503      -0.18004146
N       13.83172231      15.92237202      13.71432353       0.00021429      -0.00011059      -0.00010898      -0.01815463
