8
Properties=species:S:1:pos:R:3:forces:R:3:charge:R:1 N8=T charge=0 mult=1 PG=C2h |=T B3LYP/aug-cc-pVDZ=T src:=T B=T p.48=T (B3LYP/aug-cc-pVDZ)=T -=T chaine=T ZEZ=T energy=-631.4166302105366 free_energy=-631.4166302105366 dipole="0.006814724883998041 -0.04319743266561628 -1.9094941050276613e-15" pbc="F F F"
N       -0.00200388       0.15092322      -0.00000000       0.00016593       0.00000534      -0.00000000      -0.18714123
N        1.10744979      -0.03621739      -0.00000000      -0.00036897      -0.00007582      -0.00000000       0.29735674
N        2.29762060       0.07280530      -0.00000000       0.00026985       0.00012660       0.00000000      -0.08825200
N        3.19297417      -0.92488091       0.00000000      -0.00010395      -0.00005725      -0.00000000      -0.02197247
N        4.39078726      -0.73515153       0.00000000       0.00007412      -0.00008439      -0.00000000      -0.02195746
N        4.93399747       0.49038368      -0.00000000      -0.00022447      -0.00000640       0.00000000      -0.08823157
N        6.09960191       0.75450054       0.00000000       0.00026174       0.00016524      -0.00000000       0.29735938
N        7.09689668       1.27537909      -0.00000000      -0.00007425      -0.00007332       0.00000000      -0.18716140
