6
Properties=species:S:1:pos:R:3:forces:R:3:charge:R:1 formula=N6 topology=ring-3-substituted n_edges=6 n_rings=1 ff_energy=250.9094 mace_energy_eV=-8940.309227 delta_E_eV_atom=0.3111397938776008 sg=P1 energy=-473.29663889560624 free_energy=-473.29663889560624 dipole="-1.0115777723592436e-05 -5.60438232712021e-06 -1.4282497916303338e-05" pbc="F F F"
N       15.18262082      14.91000051      15.67834216       0.00006733       0.00012282       0.00010987      -0.09145800
N       14.35518154      13.98868867      13.78770970       0.00003654       0.00016400       0.00001998       0.29144794
N       14.69596014      14.93789866      14.42624626      -0.00002402      -0.00018367      -0.00003971      -0.09146197
N       15.52348171      15.85918205      16.31687319      -0.00006496      -0.00008377      -0.00009100       0.29144656
N       13.97400647      13.29985537      12.98178665       0.00000109       0.00001726       0.00004091      -0.19998395
N       15.90470301      16.54799283      17.12279427      -0.00001598      -0.00003663      -0.00004006      -0.19999058
