10
 energy: -28.478452404364 gnorm: 0.000870428194 xtb: 6.6.1 (8d0f1dd)
N            5.67151790244729       -0.46403563425616        2.33733404884833
N           -7.12236976589736        0.45983731907920        0.31349781264742
N            5.58203508047273       -1.03426255599671        1.25435959891526
N            5.37390151093025        0.13581654320648        3.24084472726213
N           -6.53097520134883        0.83882053512126       -0.56441728395630
N            6.36756153761298       -1.67063738122513        0.55883903660470
N           -4.94181140458009        1.91501617765320       -3.34920262638356
N           -5.59342068927043        1.28594383280944       -1.21792969202613
N            6.76412256792208       -2.27189503555912       -0.30448299105367
N           -5.43910955662604        1.56845453814168       -2.40221193543199
