4
Properties=species:S:1:pos:R:3:forces:R:3:charge:R:1 formula=N4 topology=ring-3-subst integrity=OK energy_eV=-5958.570327 delta_E_eV_atom=0.8469 sg=P1 energy=-311.3566822140465 free_energy=-311.3566822140465 dipole="-0.20323551891749664 0.07885553732995307 0.003070619876745682" pbc="F F F"
N       -0.88728265       0.23135304      -0.62168527       0.00012651       0.00005763      -0.00006881      -0.05772594
N        0.30661213      -0.11886618      -0.00454306      -0.00025064      -0.00039103       0.00000666       0.37766885
N       -0.79479838       0.42098210       0.64673679       0.00005024       0.00011518       0.00008969      -0.05769542
N        1.37546892      -0.53346897      -0.02050845       0.00007389       0.00021822      -0.00002754      -0.26224749
