8
Properties=species:S:1:pos:R:3:forces:R:3:charge:R:1 formula=N8 topology=bicyclic-3-4 n_edges=9 n_rings=2 ff_energy=325.2289 mace_energy_eV=-11921.662252 delta_E_eV_atom=0.15489618069000244 sg=P1 energy=-631.8654177674373 free_energy=-631.8654177674373 dipole="-0.467080046596418 0.3838199934675411 0.03004535518911612" pbc="F F F"
N       16.77450367      13.25718400      14.28633314      -0.00005459       0.00002725      -0.00001544      -0.04998008
N       15.83084965      14.05788183      13.98950171       0.00008308      -0.00007156       0.00004836      -0.14909205
N       15.30629619      14.40858039      15.15992438       0.00002606       0.00005638       0.00004355       0.28476497
N       13.67845734      15.80191309      14.47625159       0.00020572      -0.00014530       0.00030015       0.33001660
N       16.84216948      13.10923796      15.58850155      -0.00002437       0.00003984      -0.00002199      -0.05544453
N       15.94086781      13.81423741      16.15063804      -0.00002016      -0.00008474      -0.00001795      -0.11425794
N       14.28555675      15.23899627      15.34374396      -0.00009970       0.00020282      -0.00025998      -0.11567244
N       12.98434191      16.41928973      13.85546504      -0.00011602      -0.00002469      -0.00007669      -0.13033451
