9
Properties=species:S:1:pos:R:3:forces:R:3:charge:R:1 formula=N9 topology=bicyclic-3-5 n_edges=10 n_rings=2 ff_energy=272.079 mace_energy_eV=-13410.809897 delta_E_eV_atom=0.2726891230684032 sg=P1 energy=-708.5270427908803 free_energy=-708.5270427908803 dipole="0.045516554893919405 0.07612136360882439 0.10960384667276495" pbc="F F F"
N       15.87799414      15.39884954      16.93587918      -0.00013360       0.00014085      -0.00007106       0.27684636
N       15.00142841      16.16908806      16.64104621       0.00007858      -0.00021070      -0.00002521      -0.01119168
N       16.45708648      14.09852513      13.17411953       0.00001508      -0.00014541      -0.00026727       0.00787810
N       12.49224939      14.64882432      13.22984178      -0.00010541      -0.00011381      -0.00015337      -0.19151107
N       16.36970434      14.59118457      14.15247337      -0.00002421       0.00015526       0.00027583      -0.01816529
N       13.11177642      15.04070394      14.09059773       0.00019430       0.00011348       0.00023364       0.27944659
N       13.92422687      15.18141987      14.95776072      -0.00013309       0.00012586      -0.00004534      -0.07493324
N       16.75966105      14.88797488      17.42672872       0.00002683       0.00001183       0.00004699      -0.18005083
N       14.05746846      16.21234276      15.78416280       0.00008152      -0.00007735       0.00000578      -0.08831894
