9
Properties=species:S:1:pos:R:3:forces:R:3:charge:R:1 formula=N9 topology=ring-3-substituted n_edges=9 n_rings=1 ff_energy=254.7853 mace_energy_eV=-13408.838688 delta_E_eV_atom=0.49171231934747084 sg=P1 energy=-707.8612998506246 free_energy=-707.8612998506246 dipole="0.08245467372191971 -0.03981932826473994 0.25327089733030095" pbc="F F F"
N       14.45953422      15.62331452      14.59917238       0.00000491      -0.00001501      -0.00001832       0.37802566
N       17.60217809      14.40773570      14.85951870      -0.00040005       0.00014163      -0.00004376       0.29197679
N       16.53385236      14.82842495      14.54249381      -0.00013697      -0.00003854       0.00031830      -0.01244928
N       11.35783975      16.78704452      15.45032318       0.00016942      -0.00000311       0.00005507      -0.16803025
N       15.51909005      15.19424274      15.28300364       0.00026266      -0.00003512      -0.00027641      -0.15233983
N       12.40392661      16.38612982      15.42576391      -0.00028668       0.00005310      -0.00005204       0.32564416
N       14.26756136      15.73479023      13.42888319       0.00002948      -0.00001296       0.00000335      -0.32671463
N       18.65675875      14.00223576      14.87130082       0.00023403      -0.00002910      -0.00000901      -0.17041025
N       13.50084664      15.95906915      15.60667862       0.00012319      -0.00006089       0.00002282      -0.16570238
