8
Properties=species:S:1:pos:R:3:forces:R:3:charge:R:1 formula=N8 topology=bicyclic-5-6 n_edges=9 n_rings=2 ff_energy=89.3309 mace_energy_eV=-11921.619756 delta_E_eV_atom=0.1602082562187661 sg=P1 energy=-631.8654177885196 free_energy=-631.8654177885196 dipole="-0.3967453456137019 -0.17253503981695337 0.42339470475179736" pbc="F F F"
N       13.91297624      14.40733284      16.58629378       0.00001210       0.00002267      -0.00014105       0.33000886
N       13.75932139      14.64758935      15.42153745       0.00009091      -0.00002962       0.00007838      -0.11569439
N       15.99843191      15.19620447      14.87165129      -0.00004111      -0.00005722      -0.00000749      -0.14908738
N       14.49101235      15.27510706      13.30211583       0.00003267      -0.00007210       0.00003801      -0.11425943
N       15.62884472      15.59910178      12.82700840       0.00001577       0.00007040       0.00000488      -0.05544307
N       14.71360943      15.02251803      14.57651526      -0.00003897       0.00003024       0.00006080       0.28475795
N       13.81470483      14.13920107      17.66646654      -0.00002296       0.00003926      -0.00001209      -0.13030300
N       16.53601903      15.55105168      13.77402426      -0.00004840      -0.00000363      -0.00002143      -0.04997955
