9
Properties=species:S:1:pos:R:3:forces:R:3:charge:R:1 formula=N9 topology=ring-4-substituted n_edges=9 n_rings=1 ff_energy=119.6747 mace_energy_eV=-13409.197848 delta_E_eV_atom=0.4518056528509078 sg=P1 energy=-709.6461911726609 free_energy=-709.6461911726609 dipole="0.095923981540017 0.01972799208373858 -0.08355847564893842" pbc="F F F"
N       15.57011292      14.76570762      16.21645676      -0.00003138      -0.00002908       0.00014766      -0.05349412
N       14.58854711      14.74898067      14.15707590      -0.00031204      -0.00004837      -0.00023870      -0.06086385
N       14.80998736      15.12740633      12.92009608       0.00007213       0.00008765      -0.00022874      -0.04555754
N       14.21366021      14.84179537      11.92467348       0.00026648       0.00010963      -0.00034745       0.28207635
N       15.51472820      14.85736407      15.00492921       0.00017856       0.00003083       0.00036168       0.05931602
N       14.27879430      14.96617160      19.32467032      -0.00014766       0.00011551       0.00040568      -0.19583473
N       14.53613867      14.93136900      18.22656814       0.00009607      -0.00019253      -0.00011025       0.29286555
N       14.51406472      14.95483711      17.03275789       0.00014348       0.00004198      -0.00031256      -0.08691703
N       13.82904462      14.79062148      10.86272461      -0.00026564      -0.00011562       0.00032267      -0.19159065
