6
Properties=species:S:1:pos:R:3:forces:R:3:charge:R:1 formula=N6 topology=polycyclic-3-4 integrity=OK energy_eV=-8927.049043 delta_E_eV_atom=2.6479 sg=P1 energy=-473.29663889213407 free_energy=-473.29663889213407 dipole="-1.6446386451537395e-05 5.11671564279157e-06 1.80815296771539e-05" pbc="F F F"
N       -0.69200358      -2.41136784      -1.25018091       0.00006972       0.00040812       0.00026919      -0.19999052
N        0.38950570       0.26567252       0.47858113      -0.00002987       0.00027591       0.00002542      -0.09145843
N        0.44290724       1.42077127       0.77481613       0.00005498      -0.00014755      -0.00001293       0.29144559
N       -0.44290657      -1.42077040      -0.77481388      -0.00005466      -0.00012961      -0.00022175       0.29144594
N        0.69209128       2.41138064       1.25010797      -0.00009678      -0.00022569      -0.00009625      -0.19998707
N       -0.38959407      -0.26568617      -0.47851044       0.00005660      -0.00018117       0.00003631      -0.09145552
