10
Properties=species:S:1:pos:R:3:forces:R:3:charge:R:1 formula=N10 topology=branched-tree integrity=OK energy_eV=-14899.626832 delta_E_eV_atom=0.5268 sg=P1 energy=-788.2657856042276 free_energy=-788.2657856042276 dipole="-0.09291196417363792 -0.042653616794427696 0.07816257231803625" pbc="F F F"
N        1.03841565      -0.06814000      -0.07446001       0.00009864      -0.00026189       0.00002924      -0.11892162
N        0.76655420      -1.26221845       0.50064576       0.00001537       0.00005017      -0.00012239      -0.04407591
N        1.87112364       0.15303053      -0.90284142      -0.00010903      -0.00014000       0.00008046       0.29848119
N        2.55656411       0.61108647      -1.66656431      -0.00013189      -0.00002232       0.00020395      -0.18198026
N       -0.12096066      -1.36325834       1.33517011       0.00028182       0.00030126      -0.00009856      -0.01143589
N       -0.87466831      -0.36724792       1.74794724       0.00003871       0.00028218      -0.00029812      -0.06427960
N       -1.59312547      -0.05439040      -1.34194673      -0.00016878      -0.00002617       0.00012284      -0.01618557
N       -0.89517158       0.79683989       1.44353532      -0.00005636       0.00006473       0.00026694       0.30185479
N       -1.61993945      -0.33848923      -2.40233409       0.00007925       0.00014791       0.00002810       0.01414649
N       -1.12879212       1.89278744       1.36084812      -0.00004773      -0.00039589      -0.00021246      -0.17760362
