6
Properties=species:S:1:pos:R:3:forces:R:3:charge:R:1 formula=N6 topology=chain integrity=OK energy_eV=-8940.534903 delta_E_eV_atom=0.4003 sg=P1 energy=-473.29663889096025 free_energy=-473.29663889096025 dipole="-4.428512159059519e-05 2.746371952994523e-05 -5.7763753963712815e-05" pbc="F F F"
N        0.95121065      -0.26191385       1.35708771      -0.00008863       0.00003355      -0.00013254       0.29144920
N        0.18241331       0.24572558       0.59807249       0.00003833      -0.00006989       0.00006761      -0.09145010
N        1.61354772      -0.50187256       2.23630820       0.00001499       0.00005354      -0.00002089      -0.20000406
N       -0.18239512      -0.24570286      -0.59807789       0.00009470      -0.00009731       0.00010790      -0.09146933
N       -0.95120952       0.26191751      -1.35708792      -0.00035941       0.00008524      -0.00027220       0.29144377
N       -1.61356703       0.50184617      -2.23630258       0.00030002      -0.00000513       0.00025012      -0.19996947
