10
Properties=species:S:1:pos:R:3:initial_charges:R:1:initial_magmoms:R:1:forces:R:3:charge:R:1 N10=T charge=1 mult=2 PG=C1 |=T B3LYP/aug-cc-pVDZ=T src:=T B=T p.64=T (B3LYP/aug-cc-pVDZ)=T -=T chaine=T energy=-776.0826334153367 free_energy=-776.0826334153367 dipole="4.746366437219645 -1.1229733789581648 1.1503941667010597e-13" pbc="F F F"
N       -0.11090200       0.26995303      -0.00000000       1.00000000       1.00000000      -0.00003346      -0.00024556      -0.00000000      -0.04272067
N        0.98367728       0.03679686      -0.00000000       0.00000000       0.00000000       0.00004823       0.00026978      -0.00000000       0.32636487
N        2.18785276       0.07037221       0.00000000       0.00000000       0.00000000      -0.00011550       0.00010324       0.00000000       0.00838540
N        3.03397711      -0.90200512      -0.00000000       0.00000000       0.00000000      -0.00027845       0.00000764      -0.00000000       0.04862899
N        4.25349168      -0.79081877       0.00000000       0.00000000       0.00000000       0.00045984      -0.00012214       0.00000000       0.15932462
N        5.23914737      -1.45506719       0.00000000       0.00000000       0.00000000       0.00007953      -0.00005256       0.00000000       0.15933768
N        6.45866298      -1.34391157      -0.00000000       0.00000000       0.00000000       0.00011140      -0.00011599      -0.00000000       0.04864255
N        7.30481188      -2.31627402       0.00000000       0.00000000       0.00000000      -0.00025293      -0.00000013       0.00000000       0.00839053
N        8.50898369      -2.28265679      -0.00000000       0.00000000       0.00000000      -0.00015802       0.00020395      -0.00000000       0.32637280
N        9.60359225      -2.51566364      -0.00000000       0.00000000       0.00000000       0.00013936      -0.00004824      -0.00000000      -0.04272677
