6
Properties=species:S:1:pos:R:3:forces:R:3:charge:R:1 formula=N6 topology=bicyclic-3-4 n_edges=7 n_rings=2 ff_energy=309.5091 mace_energy_eV=-8937.397667 delta_E_eV_atom=0.7963997887777623 sg=P1 energy=-468.8604200950773 free_energy=-468.8604200950773 dipole="-0.007702846642608376 -0.2507004566857279 -0.028577803769141305" pbc="F F F"
N       14.18960876      15.19101813      14.79283458      -0.00007083      -0.00010362       0.00010378      -0.04193885
N       15.60832931      15.21187949      14.22741716       0.00012505      -0.00010116       0.00002604      -0.04193871
N       15.16204286      14.19299545      15.13301120      -0.00004344       0.00030276      -0.00009908       0.37325121
N       14.51530768      16.42818730      15.32398820      -0.00002772      -0.00002333      -0.00000186      -0.06834437
N       15.70590265      16.44569429      14.84948805       0.00001952      -0.00002284      -0.00002048      -0.06834443
N       15.34172275      13.15896225      15.54570489      -0.00000259      -0.00005181      -0.00000840      -0.15268485
