8
Properties=species:S:1:pos:R:3:forces:R:3:charge:R:1 formula=N8 topology=ring-5-substituted n_edges=8 n_rings=1 ff_energy=35.9626 mace_energy_eV=-11920.773023 delta_E_eV_atom=0.2660498820837347 sg=P1 energy=-627.5830866451295 free_energy=-627.5830866451295 dipole="0.10871210729805483 -0.01521506219416796 -0.12183541846872643" pbc="F F F"
N       16.15391828      13.71187101      15.94318762      -0.00026763       0.00013478      -0.00009909      -0.02115237
N       14.60683143      15.06938982      13.37469589      -0.00022220      -0.00006222       0.00001936       0.01821800
N       14.89777248      16.39903754      14.99098555      -0.00005014       0.00002686       0.00015541      -0.10114947
N       13.24701169      15.43522075      16.33200868      -0.00000137      -0.00002138       0.00004813      -0.16530240
N       15.27072260      16.08715908      13.84039256       0.00014076       0.00002894      -0.00011551       0.01826250
N       16.93145787      13.02908537      16.30948322       0.00027107      -0.00014609       0.00016406       0.02265364
N       13.75900597      14.65330520      14.19221051       0.00006036       0.00004680      -0.00012023      -0.10122097
N       13.88172334      15.48688116      15.31426054       0.00006915      -0.00000769      -0.00005213       0.32969107
