10
Properties=species:S:1:pos:R:3:forces:R:3:charge:R:1 formula=N10 topology=ring-5-substituted n_edges=10 n_rings=1 ff_energy=38.9093 mace_energy_eV=-14901.989038 delta_E_eV_atom=0.1637739511484142 sg=P1 energy=-787.1045172967879 free_energy=-787.1045172967879 dipole="-0.007034378190005466 -0.007301386365178042 0.02016261629188389" pbc="F F F"
N       14.04226941      17.32421962      13.72866164      -0.00002041      -0.00017014      -0.00008372       0.00841445
N       13.93560185      13.14009374      13.30476509       0.00009940       0.00008907       0.00023136      -0.20829824
N       14.15029390      16.32851775      14.17858475       0.00001616       0.00016932       0.00008107      -0.00852059
N       15.29563950      14.22389180      16.18474252      -0.00008925       0.00004583       0.00024247      -0.08402121
N       14.45711627      13.40621673      15.52895110       0.00007589      -0.00007548       0.00018672      -0.08662671
N       14.97917798      14.69715469      11.73711271       0.00012715      -0.00008069       0.00014878      -0.00944586
N       15.43935111      14.28107225      17.36765797      -0.00008608      -0.00006534      -0.00046997       0.28933115
N       15.77446533      14.54255041      18.41153716       0.00011114       0.00004900       0.00021968      -0.20393254
N       14.56422738      14.66691987      10.71961867      -0.00012801       0.00008146      -0.00015035       0.00142605
N       14.28513092      13.38226312      14.34924634      -0.00010601      -0.00004303      -0.00040603       0.30167349
