10
N10 charge=1 mult=2 PG=C1 | B3LYP/aug-cc-pVDZ (topologie) | src: [B] p.63 (B3LYP/aug-cc-pVDZ)
N        5.671518      -0.464036       2.337334
N       -7.122370       0.459837       0.313498
N        5.582035      -1.034263       1.254360
N        5.373902       0.135817       3.240845
N       -6.530975       0.838821      -0.564417
N        6.367562      -1.670637       0.558839
N       -4.941811       1.915016      -3.349203
N       -5.593421       1.285944      -1.217930
N        6.764123      -2.271895      -0.304483
N       -5.439110       1.568455      -2.402212
