10
N10 charge=1 mult=2 PG=C1 | B3LYP/aug-cc-pVDZ | src: [B] p.64 (B3LYP/aug-cc-pVDZ) - chaine
N        0.000000       0.000000       0.000000
N        1.121000       0.000000       0.000000
N        2.387667       0.300828       0.000000
N        3.111570      -0.814311       0.000000
N        4.348255      -0.588675       0.000000
N        5.144404      -1.657180       0.000000
N        6.381089      -1.431544       0.000000
N        7.104992      -2.546683       0.000000
N        8.371659      -2.245855       0.000000
N        9.492659      -2.245855       0.000000
