10
N10 charge=-1 mult=2 PG=D2h | B3LYP/aug-cc-pVDZ (topologie) | src: [B] p.70 (B3LYP/aug-cc-pVDZ) - deux cycles perpendiculaires
N        0.834976      -0.000000       0.000030
N        0.089224       1.070851      -0.000075
N       -1.135191       0.666288      -0.000020
N       -1.135191      -0.666286       0.000055
N        0.089223      -1.070851      -0.000007
N        5.110793       0.000000      -0.000071
N        4.356848       1.068999       0.000251
N        3.130854       0.661061      -0.000239
N        3.130854      -0.661061       0.000227
N        4.356848      -1.068998      -0.000152
