10
N10 charge=0 mult=1 PG=C3 | B3LYP/aug-cc-pVDZ (topologie) | src: [B] p.67 (B3LYP/aug-cc-pVDZ) - 'cap'
N        1.795603       0.766393       1.238653
N       -2.661243      -1.253379       0.497545
N        1.954227      -0.376553       0.911239
N        1.821056       1.775643       1.734765
N       -2.203282      -0.428264      -0.114706
N        1.474541      -1.102016      -0.092175
N        0.218385       0.481253      -1.196826
N       -1.977903       0.552532      -0.767827
N        0.608525      -0.672568      -0.853327
N       -0.880160       1.011512      -1.357625
