10
N10 charge=0 mult=1 PG=Cs | B3LYP/aug-cc-pVDZ (topologie) | src: [B] p.68 (B3LYP/aug-cc-pVDZ) - cycle a 5/6 + chaine
N        1.712859      -0.080602      -0.055624
N        1.240546       1.214330      -0.142615
N        0.042391       1.358363       0.215511
N       -0.728561       0.365350       0.498734
N       -0.391914      -0.746159      -0.090442
N        0.783736      -0.996584      -0.439067
N        2.902942      -0.402246       0.225473
N        3.768744       0.523077       0.488195
N        3.713540       1.728688       0.475395
N        3.961223       2.820274       0.559624
