10
N10 charge=0 mult=1 PG=D5h | B3LYP/aug-cc-pVDZ | src: [B] p.66 (B3LYP/aug-cc-pVDZ) - prisme pentagonal
N        1.274615       0.000000       0.760350
N        0.393878       1.212231       0.760350
N       -1.031185       0.749200       0.760350
N       -1.031185      -0.749200       0.760350
N        0.393878      -1.212231       0.760350
N        1.274615       0.000000      -0.760350
N        0.393878       1.212231      -0.760350
N       -1.031185       0.749200      -0.760350
N       -1.031185      -0.749200      -0.760350
N        0.393878      -1.212231      -0.760350
