10
N10 charge=0 mult=1 PG=D10h | Becke3LYP/6-31G* | src: [GS] Fig.6 (23, D10h)
N        2.022542       0.000000       0.000000
N        1.636271       1.188821       0.000000
N        0.625000       1.923552       0.000000
N       -0.625000       1.923552       0.000000
N       -1.636271       1.188821       0.000000
N       -2.022542       0.000000       0.000000
N       -1.636271      -1.188821       0.000000
N       -0.625000      -1.923552       0.000000
N        0.625000      -1.923552       0.000000
N        1.636271      -1.188821       0.000000
