10
N10 charge=0 mult=1 PG=D2d | B3LYP/6-31G* | src: [B] p.69 + [GS] Fig.6 (21, D2d) - bispentazole
N       -0.000000      -0.000000       0.000000
N       -1.353000      -0.000000       0.000000
N       -1.871658      -1.239891       0.000000
N       -0.795475      -2.044979       0.000000
N        0.254516      -1.191675       0.000000
N        1.377000       0.000000       0.000000
N        2.730000       0.000000       0.000000
N        3.248658       0.000000       1.239891
N        2.172475       0.000000       2.044979
N        1.122484       0.000000       1.191675
