10
N10 charge=0 mult=1 PG=C2v | B3LYP/aug-cc-pVDZ (topologie) | src: [B] p.65 (B3LYP/aug-cc-pVDZ) - 'log carrier'
N        1.797288       0.767357       1.238248
N       -2.664225      -1.255273       0.494899
N        1.954476      -0.376176       0.911275
N        1.823065       1.776780       1.734012
N       -2.204491      -0.429062      -0.114975
N        1.475167      -1.101774      -0.092097
N        0.218242       0.481439      -1.195550
N       -1.978097       0.552391      -0.766645
N        0.608576      -0.672681      -0.852956
N       -0.880337       1.011641      -1.356034
