12
N12 charge=0 mult=1 PG=C2h | Becke3LYP/6-31G* (topologie) | src: [GS] Fig.7 (26a, C2h)
N        1.345110       0.067070      -0.082659
N        0.415047       1.087642       0.169015
N       -0.662168       0.503068       0.410524
N       -0.537835      -0.789843       0.345411
N        0.628006      -1.132011       0.055620
N        7.421029       0.003288       0.332313
N        6.922386       1.063371       0.066877
N        5.527556       0.846819      -0.169090
N        5.418186      -0.511314      -0.676619
N        6.396293      -0.989844       0.292445
N        2.506496       0.191229      -0.360416
N        5.161203      -0.297793       0.647649
