20
N20 charge=0 mult=1 PG=Ih | Becke3LYP/6-31G* | src: [GS] Fig.7 (27, Ih)
N       -1.207862      -1.207862      -1.207862
N       -1.207862      -1.207862       1.207862
N       -1.207862       1.207862      -1.207862
N       -1.207862       1.207862       1.207862
N        1.207862      -1.207862      -1.207862
N        1.207862      -1.207862       1.207862
N        1.207862       1.207862      -1.207862
N        1.207862       1.207862       1.207862
N        0.000000      -0.746500      -1.954362
N       -0.746500      -1.954362       0.000000
N       -1.954362       0.000000      -0.746500
N        0.000000      -0.746500       1.954362
N       -0.746500       1.954362       0.000000
N        1.954362       0.000000      -0.746500
N        0.000000       0.746500      -1.954362
N        0.746500      -1.954362       0.000000
N       -1.954362       0.000000       0.746500
N        0.000000       0.746500       1.954362
N        0.746500       1.954362       0.000000
N        1.954362       0.000000       0.746500
