8
N8 charge=0 mult=1 PG=Cs | B3LYP/aug-cc-pVDZ (topologie) | src: [B] p.53 (B3LYP/aug-cc-pVDZ) - cycle a 5 + chaine
N        1.265634       0.012952       0.070585
N        0.533849       1.122362       0.108441
N       -0.669144       0.718906       0.008571
N       -0.694220      -0.589327      -0.087867
N        0.494710      -1.048777      -0.051568
N        2.590666      -0.053357       0.143631
N        3.330585       0.884045       0.250614
N        4.194267       1.586158       0.347473
