8
N8 charge=0 mult=1 PG=D2h | B3LYP/6-31G* (topologie exacte, geometrie relaxee GFN2-xTB) | src: [GS] Fig.3 p.7128 (Becke3LYP/6-31G*) - octaazapentalene (12)
N        1.192549       0.021274       0.000000
N        0.388644       1.127530       0.000000
N       -0.838768       0.720468       0.000000
N       -0.774190      -0.562457      -0.000000
N        0.426038      -1.020237       0.000000
N        2.419961       0.428336      -0.000000
N        2.355383       1.711261       0.000000
N        1.155155       2.169041      -0.000000
