9
N9 charge=1 mult=1 PG=C2v | B3LYP/aug-cc-pVDZ | src: [B] p.57 (B3LYP/aug-cc-pVDZ) - chaine
N        0.000000       0.000000       0.000000
N        1.117000       0.000000       0.000000
N        2.370784       0.337827       0.000000
N        3.124718      -0.742509       0.000000
N        4.396935      -0.361310       0.000000
N        5.097376      -1.489685       0.000000
N        6.359343      -1.111557       0.000000
N        7.102461      -2.176395       0.000000
N        8.180995      -1.885788       0.000000
