9
N9 charge=1 mult=1 PG=C2v | B3LYP/aug-cc-pVDZ (topologie) | src: [B] p.56 (B3LYP/aug-cc-pVDZ) - cycles fusionnes 5,6
N        1.312708      -0.103451       0.000596
N        0.307248       1.280428       0.000911
N       -0.815831       0.736306       0.000077
N       -0.750853      -0.545502      -0.001839
N        0.448199      -1.003437      -0.000383
N        2.561712       0.133535       0.002550
N        2.951749       1.352243      -0.001812
N        2.198188       2.389396      -0.002429
N        0.918628       2.395086       0.002328
