9
N9 charge=-1 mult=1 PG=C2v | B3LYP/aug-cc-pVDZ | src: [B] p.61 (B3LYP/aug-cc-pVDZ)
N        0.000000       0.000000       0.000000
N        1.157200       0.000000       0.000000
N        2.377924       0.138005       0.000000
N        3.091166      -1.112949       0.000000
N        4.347134      -0.804454       0.000000
N        5.124018      -1.838415       0.000000
N        6.468104      -1.321661       0.000000
N        7.325647      -2.201339       0.000000
N        8.221390      -2.933974       0.000000
