9
N9 charge=-1 mult=1 PG=C2 | B3LYP/aug-cc-pVDZ | src: [B] p.60 (B3LYP/aug-cc-pVDZ) - 'twisted W'
N        0.000000       0.000000       0.000000
N        1.153600       0.000000       0.000000
N        2.383902       0.157169       0.000000
N        3.127929      -1.072335       0.000000
N        4.405085      -0.844609       0.000000
N        5.219389      -1.854508       0.000000
N        6.587618      -1.414954       0.000000
N        7.412865      -2.340866       0.000000
N        8.283365      -3.097847       0.000000
