9
N9 charge=-1 mult=1 PG=Cs | B3LYP/aug-cc-pVDZ (topologie) | src: [B] p.62 (B3LYP/aug-cc-pVDZ) - cycle a 6 + chaine
N        1.432831       0.202071       0.281012
N        0.571880       1.248104      -0.276401
N       -0.637356       1.047772      -0.121634
N       -1.174195      -0.085842       0.286247
N       -0.386430      -1.117527       0.009850
N        0.841000      -1.044565      -0.130887
N        2.724136       0.301285      -0.193315
N        3.637840       0.830413       0.351760
N        4.672821       1.251264       0.583043
