9
N9 charge=0 mult=2 PG=C2v | B3LYP/aug-cc-pVDZ | src: [B] p.59 (B3LYP/aug-cc-pVDZ) - chaine EEEE
N        0.000000       0.000000       0.000000
N        1.135500       0.000000       0.000000
N        2.378736       0.223693       0.000000
N        3.094229      -0.942514       0.000000
N        4.358093      -0.614244       0.000000
N        5.066222      -1.711362       0.000000
N        6.382272      -1.337220       0.000000
N        7.146002      -2.343397       0.000000
N        7.981840      -3.111990       0.000000
