9
N9 charge=0 mult=2 PG=C2v | B3LYP/aug-cc-pVDZ (topologie) | src: [B] p.58 (B3LYP/aug-cc-pVDZ) - cycles fusionnes
N        1.217508       0.028370       0.000002
N        0.402958       1.149122      -0.000000
N       -0.808023       0.731999      -0.000009
N       -0.768862      -0.558612       0.000016
N        0.446839      -0.994619      -0.000011
N        2.528412       0.138736      -0.000001
N        2.966943       1.383341       0.000002
N        2.232238       2.393976       0.000002
N        0.913734       2.362290      -0.000001
