8
Properties=species:S:1:pos:R:3:forces:R:3:charge:R:1 formula=N8 topology=bicyclic-3-4-5 n_edges=10 n_rings=3 ff_energy=321.7708 mace_energy_eV=-11917.505001 delta_E_eV_atom=0.6745525335165894 sg=P1 energy=-628.7200372782212 free_energy=-628.7200372782212 dipole="-0.5401530323676618 0.2220753834029976 0.3839029369428603" pbc="F F F"
N       17.42598043      14.55361667      15.03578920      -0.00004721       0.00002445      -0.00012319      -0.14976193
N       17.13953070      14.37742263      13.80981314       0.00004283       0.00006119       0.00004353      -0.00222065
N       15.81440836      14.74830052      13.90512349       0.00003179      -0.00009608       0.00009011      -0.27810146
N       13.49233691      15.55229401      14.82439258      -0.00005138      -0.00001628       0.00007230       0.31231208
N       15.32415125      15.33964808      16.15009481      -0.00000663       0.00007905       0.00002805      -0.05703298
N       14.09911536      15.60808256      15.87743483      -0.00003144      -0.00003964      -0.00000193      -0.01139187
N       12.67941459      15.60963197      14.05623490       0.00010696       0.00004978      -0.00005028      -0.09788730
N       16.04716128      14.95280390      15.19972280      -0.00004491      -0.00006248      -0.00005859       0.28408411
