10
Properties=species:S:1:pos:R:3:forces:R:3:charge:R:1 formula=N10 topology=bicyclic-3-5-6 n_edges=12 n_rings=3 ff_energy=279.6444 mace_energy_eV=-14899.101267 delta_E_eV_atom=0.45255102373562295 sg=P1 energy=-788.9779921577234 free_energy=-788.9779921577234 dipole="0.013984052744464777 0.003608217174394181 0.02637104560005127" pbc="F F F"
N       15.73794573      16.56044809      13.70925099      -0.00004491      -0.00004571      -0.00002894       0.28359308
N       16.28902866      16.27341859      12.77159025       0.00009171      -0.00004047      -0.00014185      -0.17628746
N       15.63225879      13.45020026      15.78514909      -0.00009582       0.00007441      -0.00001548      -0.04226065
N       14.47010505      12.87616649      15.49558982       0.00031205       0.00002083       0.00009564      -0.06955187
N       14.94451771      15.60459426      16.22265623      -0.00009835       0.00002044       0.00014575       0.00450180
N       15.74196880      14.66722145      15.92851807       0.00009966      -0.00029425      -0.00014031       0.00450461
N       15.11069709      17.10865904      14.57247581      -0.00006355       0.00007457       0.00031134      -0.06954421
N       14.75286772      16.74339527      15.79823999      -0.00000174       0.00010197      -0.00020064      -0.04227169
N       13.34841868      13.29605075      15.42738005      -0.00030386       0.00017617       0.00005010       0.28358836
N       12.23851408      13.43807618      15.31235995       0.00010482      -0.00008795      -0.00007562      -0.17627197
