4
Properties=species:S:1:pos:R:3:forces:R:3:charge:R:1 formula=N4 topology=chain integrity=OK energy_eV=-5958.412606 delta_E_eV_atom=0.8863 sg=P1 energy=-313.7110421499801 free_energy=-313.7110421499801 dipole="-1.2037224133490603e-06 -2.2363312379962578e-07 2.497272099551904e-06" pbc="F F F"
N       -0.61972646      -0.21147185       1.02065161       0.00003744       0.00005171       0.00015669      -0.00226611
N        0.61969713       0.21158074      -1.02068832      -0.00003605      -0.00004513      -0.00010348      -0.00226813
N       -0.25234778       0.20611583       1.96841955      -0.00004406      -0.00005598      -0.00015648       0.00226719
N        0.25237710      -0.20622472      -1.96838283       0.00004267       0.00004940       0.00010326       0.00226705
