6
 energy: -16.866997373683 gnorm: 0.000549705004 xtb: 6.6.1 (8d0f1dd)
N            0.28028532376971       -0.17200680588879       -0.00025612983391
N            1.21607644273717        0.43654866477608        0.00010429325850
N            2.02540410310048        1.33813647802543        0.00021560207231
N            3.29820819378499        1.29566487407848        0.00008777972154
N            4.10764186130406        2.19692054400167        0.00004021217573
N            5.04403209554615        2.80434312928008       -0.00019166121829
