10
Properties=species:S:1:pos:R:3:forces:R:3:charge:R:1 formula=N10 topology=bicyclic-3-5 n_edges=11 n_rings=2 ff_energy=249.7918 mace_energy_eV=-14897.69392 delta_E_eV_atom=0.5932857034447352 sg=P1 energy=-786.5014252534348 free_energy=-786.5014252534348 dipole="-0.14603854463776772 0.7468099288885907 0.09567634745021254" pbc="F F F"
N       15.69559395      12.53622612      14.40378347      -0.00002804      -0.00018707       0.00031608       0.30528691
N       14.91226354      16.50026421      14.95456052      -0.00001715      -0.00001751       0.00008579       0.27174528
N       14.96089530      15.47952254      15.61785105      -0.00000329      -0.00002560       0.00001417       0.14822800
N       15.73437154      13.84062663      16.73891973       0.00001110       0.00017727      -0.00000591       0.05426191
N       15.87217172      12.73153481      13.29920556       0.00001977       0.00012174      -0.00021055      -0.24813631
N       16.10930571      14.92423915      16.29252442      -0.00008327      -0.00012274       0.00001138      -0.13812850
N       15.52153059      12.29533379      15.53617778       0.00003053       0.00004179      -0.00019842      -0.24647746
N       14.40899713      13.61373574      16.48692470      -0.00006201       0.00016222      -0.00001738       0.05426229
N       14.85000077      17.47923723      14.40054107       0.00002577      -0.00005662      -0.00004613      -0.06291434
N       13.89123475      14.54452588      15.87079946       0.00010660      -0.00009347       0.00005097      -0.13812778
