8
Properties=species:S:1:pos:R:3:forces:R:3:charge:R:1 formula=N8 topology=bicyclic-3-4-5 n_edges=10 n_rings=3 ff_energy=352.9248 mace_energy_eV=-11916.691369 delta_E_eV_atom=0.7762565295900004 sg=P1 energy=-629.4168727916928 free_energy=-629.4168727916928 dipole="0.014364535812972597 0.023803664222712444 -0.06183784052644608" pbc="F F F"
N       14.72410593      15.00291028      16.89164451       0.00000829      -0.00000353      -0.00004947      -0.03850026
N       15.29470851      14.46761418      14.45990233      -0.00005672      -0.00037767      -0.00013446       0.20444456
N       14.88353907      16.03755713      16.18743010      -0.00008106       0.00009229       0.00023253      -0.05082814
N       14.83597472      13.75813656      16.43814355      -0.00000575       0.00008435       0.00017741      -0.03850783
N       15.56902339      14.97779619      13.27474710       0.00010453       0.00021298       0.00000530      -0.11511837
N       15.45722053      16.22032983      13.72739825      -0.00005941      -0.00014566      -0.00026388      -0.11511559
N       15.11585466      13.45380891      15.24614091      -0.00001842      -0.00004919      -0.00018505      -0.05081324
N       15.17440873      15.80438176      14.94687572       0.00010854       0.00018644       0.00021763       0.20443886
