4
Properties=species:S:1:pos:R:3:forces:R:3:charge:R:1 energy=-310.67632915304296 free_energy=-310.67632915304296 dipole="2.1580697905397343e-10 1.804881926067461e-10 4.290163927415601e-08" pbc="F F F"
N        0.02896410      -0.00084992       0.00000000       0.00007253      -0.00009914       0.00000000      -0.00000000
N        1.50503590      -0.00084992      -0.00000000      -0.00007253      -0.00009914      -0.00000000       0.00000000
N        1.50503590       1.24984992       0.00000000      -0.00007253       0.00009914       0.00000000      -0.00000000
N        0.02896410       1.24984992      -0.00000000       0.00007253       0.00009914      -0.00000000       0.00000000
