10
Properties=species:S:1:pos:R:3:forces:R:3:charge:R:1 formula=N10 topology=bicyclic-3-4 n_edges=11 n_rings=2 ff_energy=304.1306 mace_energy_eV=-14899.869799 delta_E_eV_atom=0.37569781360889465 sg=P1 energy=-785.3987813960455 free_energy=-785.3987813960455 dipole="-0.02510195494842254 -0.059925105768694586 -0.070777943357898" pbc="F F F"
N       14.70270474      15.36555195      15.00788576      -0.00020409      -0.00009625       0.00003402      -0.08343751
N       14.30347671      14.89668214      13.89651287      -0.00013059      -0.00002354       0.00012439      -0.03523507
N       15.15777147      14.72860924      12.94653797       0.00010003       0.00008869      -0.00006656      -0.03672157
N       16.87176362      14.11329987      16.72886397      -0.00001558      -0.00005549      -0.00017015      -0.00059486
N       13.16601382      14.72717432      16.72892822       0.00015569       0.00009824      -0.00004778       0.04310089
N       16.34984355      14.87573221      12.84201506      -0.00025061       0.00001778       0.00022413       0.30812996
N       13.80314738      15.67680159      15.90668356       0.00010913      -0.00006366      -0.00006136       0.00478971
N       16.72162192      14.17233971      15.64045427       0.00003708       0.00007119       0.00021220      -0.02364897
N       17.39172433      14.90197987      12.42647354       0.00023953      -0.00002812      -0.00016903      -0.15620793
N       12.39307201      15.06352300      15.86595194      -0.00004059      -0.00000884      -0.00007985      -0.02017465
