8
Properties=species:S:1:pos:R:3:forces:R:3:charge:R:1 formula=N8 topology=ring-4-substituted n_edges=8 n_rings=1 ff_energy=106.5118 mace_energy_eV=-11919.760959 delta_E_eV_atom=0.39255784305760244 sg=P1 energy=-631.3464651930814 free_energy=-631.3464651930814 dipole="0.08926787478160035 0.05933290265178307 0.00100564318914612" pbc="F F F"
N       14.41350605      14.49270713      14.37822853      -0.00004397       0.00002030       0.00012265      -0.11860210
N       12.65418379      13.03365132      14.10088677       0.00001686       0.00008463       0.00007177      -0.17911948
N       15.18585270      16.55512573      15.76167960       0.00008534       0.00000023       0.00011046       0.29421574
N       14.44928804      16.93254497      16.52246888      -0.00013063      -0.00004191      -0.00008652      -0.17805275
N       15.62199362      14.61193129      13.78540913       0.00012870       0.00005379      -0.00011796      -0.04003958
N       16.14736489      16.38812117      15.05758592       0.00003615       0.00003438      -0.00001195      -0.06745949
N       13.57642091      13.67414869      14.13595649      -0.00011926      -0.00013677      -0.00006564       0.30183299
N       16.39681019      15.49543452      14.12135728       0.00002680      -0.00001465      -0.00002282      -0.01277534
