9
Properties=species:S:1:pos:R:3:forces:R:3:charge:R:1 formula=N9 topology=ring-3-substituted n_edges=9 n_rings=1 ff_energy=230.0822 mace_energy_eV=-13408.014177 delta_E_eV_atom=0.5833247311936702 sg=P1 energy=-708.2521877356465 free_energy=-708.2521877356465 dipole="-0.6233407634527313 -0.13086973142171157 -0.33964404321342784" pbc="F F F"
N       16.73020658      15.03294193      16.58488274      -0.00001909      -0.00000627      -0.00001551       0.34232372
N       14.47650179      15.22916737      13.88422444       0.00013310       0.00013282      -0.00010160       0.30968051
N       17.72712107      15.21080237      17.11479403       0.00007785      -0.00000376       0.00003741      -0.23948977
N       13.32137183      14.15957624      16.41624190      -0.00000593      -0.00002954       0.00019591       0.30968015
N       15.72432061      14.85199450      16.04957304      -0.00004073       0.00000005      -0.00001594      -0.34218599
N       13.55289024      14.50900773      14.15014350      -0.00000390      -0.00002072      -0.00009781      -0.03076480
N       15.21022571      15.86359154      13.31502451      -0.00007009      -0.00003774       0.00006922      -0.15924049
N       13.05020289      14.04354687      15.25202259      -0.00008216      -0.00009096       0.00002130      -0.03076713
N       13.28391957      14.07992005      17.53743991       0.00001095       0.00005612      -0.00009296      -0.15923621
