8
Properties=species:S:1:pos:R:3:forces:R:3:charge:R:1 formula=N8 topology=bicyclic-3-5 n_edges=9 n_rings=2 ff_energy=271.064 mace_energy_eV=-11919.835886 delta_E_eV_atom=0.38319198499902996 sg=P1 energy=-627.8121407694941 free_energy=-627.8121407694941 dipole="0.14972731430167743 0.022202585435164932 -0.1505982493188349" pbc="F F F"
N       15.46012858      15.49273542      14.27887441       0.00005536       0.00000515       0.00004834      -0.01660140
N       13.53101902      13.09952599      13.14959913       0.00002100      -0.00006731      -0.00006020       0.00501434
N       14.16795662      15.69483839      16.15473906      -0.00006046      -0.00001666       0.00009185       0.31812578
N       15.10894150      16.04007449      15.50942079      -0.00002109      -0.00005210       0.00000204      -0.14934590
N       16.87311597      15.61882529      14.04070242      -0.00009982       0.00002241       0.00005332       0.02071753
N       13.51693105      13.71164165      14.06168689      -0.00002788       0.00007505       0.00004706      -0.01145595
N       16.18541845      16.44241420      13.47814095       0.00004527       0.00001627      -0.00010725       0.02070561
N       13.37432276      15.56526220      16.93545865       0.00008761       0.00001719      -0.00007517      -0.18716001
