4
Properties=species:S:1:pos:R:3:forces:R:3:charge:R:1 formula=N4 topology=polycyclic-3-3-3 integrity=OK energy_eV=-5837.349172 delta_E_eV_atom=31.1521 sg=P1 energy=-312.50458196909943 free_energy=-312.50458196909943 dipole="1.2309551713283568e-10 -6.100922236182791e-11 1.3615460149702613e-10" pbc="F F F"
N        0.77231015       0.24662470      -0.28421552      -0.00039689      -0.00012674       0.00014606       0.00000000
N       -0.02715209      -0.85734169       0.04788707       0.00001395       0.00044058      -0.00002461       0.00000000
N       -0.13885223       0.33486079       0.77887963       0.00007135      -0.00017208      -0.00040026       0.00000000
N       -0.60630583       0.27585619      -0.54255118       0.00031158      -0.00014176       0.00027882      -0.00000000
