6
Properties=species:S:1:pos:R:3:forces:R:3:charge:R:1 formula=N6 topology=ring-4-substituted n_edges=6 n_rings=1 ff_energy=109.4772 mace_energy_eV=-8938.522437 delta_E_eV_atom=0.6089381977114954 sg=P1 energy=-470.49463204891504 free_energy=-470.49463204891504 dipole="-0.36665284593673336 -0.38910784647100805 0.13105795455635832" pbc="F F F"
N       15.07664130      15.09314707      15.10772018       0.00009757       0.00009453      -0.00004060       0.13755749
N       15.11706811      16.34124300      14.36126534       0.00002998      -0.00008486       0.00007289      -0.16217624
N       16.48409106      15.38165063      15.33668704      -0.00011046       0.00001530      -0.00002828      -0.16217610
N       14.27264542      14.24001942      15.39521400      -0.00000168      -0.00005085      -0.00004377       0.27990074
N       16.36684449      16.46240285      14.64657783       0.00009350       0.00009574      -0.00003917      -0.00991117
N       13.52449047      13.44613018      15.66273316      -0.00010891      -0.00006987       0.00007894      -0.08319472
