8
Properties=species:S:1:pos:R:3:forces:R:3:charge:R:1 formula=N8 topology=branched-tree integrity=OK energy_eV=-11918.296008 delta_E_eV_atom=0.7024 sg=P1 energy=-630.1932350644993 free_energy=-630.1932350644993 dipole="-0.04515915977600964 0.0005839961197889245 -0.003794433912574138" pbc="F F F"
N        0.29007133       0.00607797      -0.68260431       0.00002316      -0.00001125      -0.00000318       0.29153328
N       -0.55430775       0.00425105       0.16120847      -0.00003758       0.00003417       0.00002989      -0.08529136
N       -1.87929747       0.02331905      -0.05793044       0.00002980      -0.00002591      -0.00005064      -0.09116512
N        3.17000277      -0.03960359       0.11129316      -0.00021068       0.00030874       0.00004459      -0.00537603
N        4.13701295      -0.04342559      -0.41287066       0.00021920      -0.00030995      -0.00003664      -0.00390401
N       -2.72808615       0.02165323       0.78131290      -0.00005381       0.00003762       0.00005503       0.29220738
N        1.27216805       0.00215573      -1.23824927       0.00000951       0.00000482      -0.00003874      -0.19890708
N       -3.70756374       0.02557215       1.33784017       0.00002040      -0.00003824      -0.00000030      -0.19909707
