9
Properties=species:S:1:pos:R:3:forces:R:3:charge:R:1 formula=N9 topology=bicyclic-3-4 n_edges=10 n_rings=2 ff_energy=305.3058 mace_energy_eV=-13409.94176 delta_E_eV_atom=0.3691488339677562 sg=P1 energy=-710.0358520017329 free_energy=-710.0358520017329 dipole="-0.11358574947282078 -0.6607370190211245 -0.0505190625942489" pbc="F F F"
N       14.85731640      14.30167427      14.34972235       0.00019598       0.00003425      -0.00010914       0.00667353
N       14.35904656      15.14210757      15.20189543      -0.00008215       0.00014677       0.00008079      -0.11067762
N       14.77279114      16.36990471      15.04732134       0.00002207       0.00000256       0.00009017       0.28824141
N       14.36281975      17.36539527      15.83523641      -0.00011408       0.00004554       0.00003314      -0.11214376
N       14.95481370      18.39897970      15.40657936      -0.00004408       0.00007631       0.00019762      -0.05004659
N       14.66983063      13.12405522      14.24140733      -0.00001778      -0.00032515      -0.00010092       0.29937923
N       14.69136182      12.04738184      13.90581428      -0.00005593       0.00006067       0.00006572      -0.13543018
N       15.72346863      18.08345436      14.37445161       0.00011528       0.00006909      -0.00016030      -0.04987877
N       15.63100193      16.84462957      14.13221396      -0.00001932      -0.00011003      -0.00009708      -0.13611724
