9
Properties=species:S:1:pos:R:3:forces:R:3:charge:R:1 formula=N9 topology=bicyclic-3-5-6 n_edges=11 n_rings=3 ff_energy=325.1163 mace_energy_eV=-13411.713474 delta_E_eV_atom=0.1722917098588823 sg=P1 energy=-707.83041752174 free_energy=-707.83041752174 dipole="-0.18002002163934533 0.043390091191587245 0.3780146582300799" pbc="F F F"
N       16.15085820      15.87066350      14.57052105      -0.00005561      -0.00003170       0.00036436      -0.13812725
N       16.23235174      15.77959838      13.30589392      -0.00013757       0.00003032      -0.00028057      -0.03383012
N       13.87488321      15.54929036      16.98317159       0.00006393      -0.00004060       0.00012647      -0.07702195
N       14.82615663      15.69047849      14.84171564      -0.00014819      -0.00002704       0.00030377       0.23841306
N       15.06719774      15.57128991      12.77488779       0.00009528       0.00004075      -0.00003355      -0.03382637
N       15.21457407      12.90315381      15.07419300       0.00000505      -0.00010449      -0.00023692      -0.02275555
N       15.59651796      12.00010523      14.58016249      -0.00001698       0.00009469       0.00020211       0.02194402
N       14.27437017      15.90303191      15.96898865       0.00016950       0.00007820      -0.00036096       0.18339038
N       14.16107345      15.51485726      13.66369488       0.00002459      -0.00004011      -0.00008471      -0.13818621
