7
Properties=species:S:1:pos:R:3:forces:R:3:charge:R:1 formula=N7 topology=bicyclic-4-4-5 n_edges=9 n_rings=3 ff_energy=384.177 mace_energy_eV=-10428.040642 delta_E_eV_atom=0.6425859325329384 sg=P1 energy=-550.0046493546914 free_energy=-550.0046493546914 dipole="-0.07336103205553542 0.08308476894467157 -0.10808389216739164" pbc="F F F"
N       14.30005915      14.17243783      14.83552051       0.00013003      -0.00011460       0.00013842       0.20779416
N       14.14907599      13.09142673      15.19024967      -0.00002291      -0.00002544       0.00002840      -0.18034810
N       13.87182923      15.05109725      14.02287148      -0.00026086      -0.00017142      -0.00018920      -0.05757899
N       16.61475634      15.08199259      16.61775331       0.00006574      -0.00002213       0.00019500      -0.01136951
N       14.27876631      16.19576461      13.88229011       0.00008986       0.00018996       0.00004377       0.26796008
N       14.32611765      17.24230237      13.44474807       0.00001445       0.00012221      -0.00001793      -0.16948012
N       15.94842200      15.44783613      15.81624736      -0.00001632       0.00002141      -0.00019846      -0.05697752
