6
Properties=species:S:1:pos:R:3:forces:R:3:charge:R:1 formula=N6 topology=ring-4-subst integrity=OK energy_eV=-8931.429281 delta_E_eV_atom=1.9179 sg=P1 energy=-473.2966387015169 free_energy=-473.2966387015169 dipole="-1.6069793596584323e-05 0.00014680095566645669 -0.00011200428065421902" pbc="F F F"
N        0.85559877      -0.14162037      -1.43630043      -0.00013227      -0.00025405       0.00012441       0.29145459
N       -0.01774901       0.11035210      -0.66258600       0.00005399      -0.00010189       0.00018914      -0.09145746
N       -1.48679261       0.26646905       2.36115501      -0.00011026       0.00025020      -0.00026284      -0.19999941
N        0.01783409      -0.10946707       0.66246841       0.00024928      -0.00023533       0.00007594      -0.09145628
N        1.48679558      -0.26732011      -2.36100650      -0.00000388       0.00034672      -0.00027008      -0.19998311
N       -0.85568681       0.14158641       1.43626951      -0.00005687      -0.00000565       0.00014342       0.29144168
