9
 energy: -26.071208968233 gnorm: 0.000519312025 xtb: 6.6.1 (8d0f1dd)
N            1.21750826584560        0.02836967368311        0.00000167089299
N            0.40295769544071        1.14912223867777       -0.00000007725480
N           -0.80802320523148        0.73199853790005       -0.00000919149862
N           -0.76886168352711       -0.55861165258062        0.00001614909687
N            0.44683859253201       -0.99461925776256       -0.00001088696267
N            2.52841224338557        0.13873603927087       -0.00000114154829
N            2.96694260781673        1.38334138794527        0.00000244217246
N            2.23223826260352        2.39397644517453        0.00000214191207
N            0.91373392399437        2.36228976858270       -0.00000138899766
