8
Properties=species:S:1:pos:R:3:forces:R:3:charge:R:1 formula=N8 topology=ring-5-substituted n_edges=8 n_rings=1 ff_energy=34.8877 mace_energy_eV=-11920.73217 delta_E_eV_atom=0.2711564214405371 sg=P1 energy=-630.1945646925795 free_energy=-630.1945646925795 dipole="-0.01273670429996033 0.00998811703505111 0.014234711586262733" pbc="F F F"
N       13.78676835      13.24391648      17.11547559       0.00005603       0.00003683      -0.00007762      -0.20506898
N       14.85720388      14.21930900      14.07878338      -0.00008146       0.00007016       0.00002919      -0.08743530
N       14.29290790      13.47814094      16.13664963      -0.00014943      -0.00007214       0.00025704       0.29792111
N       13.80608596      16.40271506      15.95114911      -0.00012135       0.00025021       0.00007615      -0.01181670
N       15.63331870      14.31848945      13.17806629       0.00011477       0.00015096      -0.00036237       0.28877333
N       16.14645784      14.57404010      12.20753919      -0.00005010      -0.00013540       0.00025258      -0.20489453
N       15.05241811      13.53610292      15.21803548       0.00011934      -0.00003638      -0.00010746      -0.08939990
N       13.41848404      17.41848054      16.10420535       0.00011221      -0.00026423      -0.00006751       0.01192097
