10
Properties=species:S:1:pos:R:3:forces:R:3:charge:R:1 formula=N10 topology=bicyclic-3-4-7 n_edges=12 n_rings=3 ff_energy=303.9015 mace_energy_eV=-14900.371476 delta_E_eV_atom=0.32553015340204183 sg=P1 energy=-785.0648681349132 free_energy=-785.0648681349132 dipole="-0.06618650231087435 0.15090929003443224 -0.02402584201576713" pbc="F F F"
N       16.01869997      12.25009804      25.39755671       0.00005638      -0.00012251       0.00015222       0.00007891
N       15.77564838      15.74639904      12.76726177       0.00001129      -0.00006622       0.00009358      -0.12759311
N       14.84857820      15.51758882      11.78535964      -0.00002746      -0.00005840       0.00000140       0.03307064
N       13.38138569      15.62084831      12.12887430      -0.00022097       0.00014519       0.00013913       0.12233670
N       17.51906357      17.24160239      12.92043486      -0.00003734      -0.00010528       0.00006502      -0.17708508
N       14.00715783      14.44881279      11.98722787      -0.00004838      -0.00010446      -0.00010442      -0.21374152
N       12.13529149      16.82519798      13.65959096       0.00021388      -0.00013246      -0.00008723      -0.12955390
N       12.96602190      16.23478244      13.14893768      -0.00011104       0.00000727      -0.00004244       0.19252139
N       15.69414544      12.00901396      24.37646556      -0.00005685       0.00014547      -0.00015252      -0.00007891
N       16.63712235      16.57497723      12.72492869       0.00022048       0.00029139      -0.00006475       0.30004487
