8
Properties=species:S:1:pos:R:3:forces:R:3:charge:R:1 formula=N8 topology=ring-4-substituted n_edges=8 n_rings=1 ff_energy=101.1301 mace_energy_eV=-11917.623641 delta_E_eV_atom=0.6597225390773929 sg=P1 energy=-627.2741455033264 free_energy=-627.2741455033264 dipole="0.005687156749408564 0.09338705193893916 -0.01052464213608539" pbc="F F F"
N       15.42326836      14.82653061      15.96290907      -0.00010266       0.00000519       0.00001936      -0.28858902
N       16.85363984      14.89943563      14.05308885       0.00000623      -0.00005873       0.00000137       0.17906540
N       13.09981623      15.37064759      16.02893162      -0.00001902       0.00003836       0.00000713       0.17916771
N       12.09736215      15.29164697      16.57297163       0.00018541      -0.00001437      -0.00009821      -0.11585772
N       14.48094591      14.68593209      14.20615973      -0.00007337       0.00000949       0.00007376      -0.28858902
N       17.82961932      14.57184709      13.55579027       0.00013630      -0.00004734      -0.00006930      -0.11591056
N       15.77815431      14.59610713      14.65425699      -0.00007927       0.00024716       0.00002279       0.22534135
N       14.11875937      14.80465939      15.52766729      -0.00005362      -0.00017975       0.00004309       0.22537186
