4
Properties=species:S:1:pos:R:3:forces:R:3:charge:R:1 formula=N4 topology=ring-4 integrity=OK energy_eV=-5958.395683 delta_E_eV_atom=0.8905 sg=P1 energy=-310.67632916987975 free_energy=-310.67632916987975 dipole="1.2080616153344185e-05 1.5771781212678672e-06 5.42198829598872e-06" pbc="F F F"
N        0.28937251       0.28452593       0.87809506       0.00012878       0.00028838       0.00035529       0.00000770
N       -0.28939462      -0.28439523      -0.87814117      -0.00025152       0.00008748      -0.00013051      -0.00000385
N        0.84520012       0.04569214      -0.46828250       0.00042476      -0.00013719      -0.00019363       0.00000341
N       -0.84517800      -0.04582285       0.46832860      -0.00030202      -0.00023867      -0.00003115      -0.00000726
