7
Properties=species:S:1:pos:R:3:forces:R:3:charge:R:1 formula=N7 topology=bicyclic-3-4 n_edges=8 n_rings=2 ff_energy=314.9153 mace_energy_eV=-10429.266117 delta_E_eV_atom=0.4675181441930363 sg=P1 energy=-547.5541524602735 free_energy=-547.5541524602735 dipole="-0.13211393842015307 -0.20677134966991112 0.31481458377920235" pbc="F F F"
N       16.27865609      15.79673637      14.21310591      -0.00018385      -0.00018074       0.00020219      -0.04324953
N       14.52055866      14.45471131      15.91005346       0.00000279      -0.00001617       0.00042459       0.24608202
N       14.88914366      14.39174642      13.57301250       0.00019763      -0.00000146      -0.00002098      -0.08480784
N       14.62185763      14.46032006      17.03574052       0.00002172       0.00005230      -0.00045420      -0.09203455
N       16.97832526      16.23698073      13.47432329       0.00017659       0.00015794      -0.00018550      -0.03342006
N       14.21444081      14.05181241      14.76934777      -0.00007400      -0.00008323       0.00004843       0.13173411
N       13.66906333      14.81242942      13.72582164      -0.00014088       0.00007137      -0.00001453      -0.12430416
