10
Properties=species:S:1:pos:R:3:forces:R:3:charge:R:1 formula=N10 topology=ring-7-substituted n_edges=10 n_rings=1 ff_energy=27.6676 mace_energy_eV=-14899.15335 delta_E_eV_atom=0.44734275111181887 sg=P1 energy=-788.013651581415 free_energy=-788.013651581415 dipole="-0.07548467055840834 0.03289416754911822 -0.02112160796091578" pbc="F F F"
N       16.21859207      14.15702910      14.10825396      -0.00016133       0.00016856      -0.00014955       0.27273890
N       17.05851222      15.22891425      16.87350265       0.00000187       0.00006362       0.00001160      -0.18273234
N       13.32898079      13.19657089      16.69709227      -0.00013025      -0.00014444       0.00011145       0.02674564
N       15.56544245      16.58024345      15.74655086       0.00002828      -0.00032421      -0.00023298      -0.06252663
N       14.85002530      16.73278050      14.65951073       0.00015323      -0.00006303       0.00024381      -0.02730999
N       14.09202009      13.80002777      16.18863283       0.00012810       0.00014425      -0.00011310      -0.02694360
N       16.33474224      15.78674433      16.21545644      -0.00024923       0.00022947      -0.00022428       0.27273566
N       14.79627834      15.97841274      13.68409117      -0.00006757       0.00029839       0.00016079      -0.02739799
N       15.44229590      14.85164516      13.51142653       0.00015763      -0.00027595       0.00015007      -0.06257614
N       16.92397425      13.34171477      14.43342794       0.00013928      -0.00009666       0.00004220      -0.18273352
