3
Properties=species:S:1:pos:R:3:forces:R:3:charge:R:1 formula=N3 topology=ring-3 n_edges=3 n_rings=1 ff_energy=300.0 mace_energy_eV=-4467.522947 delta_E_eV_atom=1.188362069446839 sg=P1 energy=-232.2324117351213 free_energy=-232.2324117351213 dipole="-4.432159578534857e-06 2.443739260991448e-05 -2.844116939034046e-05" pbc="F F F"
N       15.04258293      14.51636903      15.56828422      -0.00000681      -0.00024563       0.00033933      -0.00003186
N       15.56379363      14.95649455      14.43044914      -0.00032065       0.00028770      -0.00005540       0.00001289
N       14.43670241      15.48312335      14.89127757       0.00032746      -0.00004207      -0.00028393       0.00001897
