8
Properties=species:S:1:pos:R:3:forces:R:3:charge:R:1 formula=N8 topology=bicyclic-3-4-5 n_edges=10 n_rings=3 ff_energy=323.4445 mace_energy_eV=-11916.472331 delta_E_eV_atom=0.8036363158737458 sg=P1 energy=-631.8654177901786 free_energy=-631.8654177901786 dipole="0.2740558911962065 -0.2792687121926145 0.46192131057079855" pbc="F F F"
N       15.66745950      14.18506007      16.44349491       0.00001612      -0.00009134      -0.00035471       0.33000519
N       14.32220846      15.73971551      14.52390836      -0.00005466      -0.00017460       0.00000627      -0.14909186
N       14.89894087      14.55262506      14.36191903       0.00011656       0.00007531       0.00009211       0.28476106
N       14.12262001      15.06575537      12.52755634      -0.00004598      -0.00006909      -0.00012650      -0.05544480
N       15.91725240      14.28132829      17.52823284      -0.00000575       0.00003901       0.00022940      -0.13028802
N       15.52579239      13.85148665      15.30040556      -0.00002382       0.00006385       0.00011553      -0.11570353
N       13.85315013      16.02922994      13.37679459       0.00009459       0.00005268       0.00000383      -0.04997845
N       14.77073083      14.13942583      13.11682174      -0.00009707       0.00010418       0.00003406      -0.11425960
