4
Properties=species:S:1:pos:R:3:forces:R:3:charge:R:1 formula=N4 topology=chain n_edges=3 n_rings=0 ff_energy=3.3373 mace_energy_eV=-5961.451417 delta_E_eV_atom=-0.00017651084795033967 sg=P-1 energy=-313.7110421455647 free_energy=-313.7110421455647 dipole="1.1327827289432097e-05 -4.538646356912999e-06 2.948328641784482e-06" pbc="F F F"
N       14.30657218      15.93969806      14.67284264      -0.00017545      -0.00008576      -0.00001112      -0.00227047
N       15.69341740      14.06041222      15.32712899      -0.00016744      -0.00002457      -0.00002329      -0.00227084
N       13.22910263      15.78504347      14.52200608       0.00017813       0.00006690       0.00001576       0.00226745
N       16.77090803      14.21484586      15.47802087       0.00016477       0.00004342       0.00001866       0.00227386
