6
Properties=species:S:1:pos:R:3:forces:R:3:charge:R:1 formula=N6 topology=ring-3-substituted n_edges=6 n_rings=1 ff_energy=225.2177 mace_energy_eV=-8942.343494 delta_E_eV_atom=-0.02790467995077961 sg=P1 energy=-470.732225464809 free_energy=-470.732225464809 dipole="-0.0014938380465553762 -0.012381664030838742 0.005057332505721793" pbc="F F F"
N       14.60543829      14.09581200      16.05449496      -0.00014698      -0.00018088       0.00016205      -0.01152917
N       14.69830673      13.41912663      14.43773279       0.00003446      -0.00000573      -0.00019621      -0.01154545
N       15.01891985      16.80479783      13.99169742      -0.00024732      -0.00002886      -0.00008098      -0.10310487
N       14.70490669      15.22916974      15.99045249       0.00006996       0.00020908      -0.00014119      -0.02506100
N       14.83725720      14.26509422      13.68704075      -0.00006839       0.00007220       0.00013928      -0.02502295
N       14.89489702      15.77536448      14.41544692       0.00035827      -0.00006581       0.00011704       0.17626345
