6
Properties=species:S:1:pos:R:3:forces:R:3:charge:R:1 formula=N6 topology=ring-6 integrity=OK energy_eV=-8935.638435 delta_E_eV_atom=1.2164 sg=P1 energy=-472.25221570908604 free_energy=-472.25221570908604 dipole="-0.00012628099639261405 0.0001143984273051424 -3.1533468555587157e-05" pbc="F F F"
N        1.04662764      -0.75155527      -0.10064913       0.00043229      -0.00013847       0.00007393      -0.04588168
N        0.61362825      -0.29259323       0.98192613      -0.00006693       0.00006236       0.00015283       0.09164603
N       -0.38984505       0.43837930       1.15163726      -0.00004567       0.00001172      -0.00022669      -0.04582125
N       -0.71463506       1.07684950      -0.00990351       0.00004196      -0.00012597      -0.00002872      -0.04580006
N       -0.61362263       0.29259751      -0.98192056      -0.00015598       0.00018705       0.00013612       0.09171215
N        0.05784687      -0.76367780      -1.04109018      -0.00020567       0.00000330      -0.00010748      -0.04585520
