10
Properties=species:S:1:pos:R:3:forces:R:3:charge:R:1 formula=N10 topology=bicyclic-6-9 n_edges=11 n_rings=2 ff_energy=31.384 mace_energy_eV=-14900.018628 delta_E_eV_atom=0.3608149345318452 sg=P1 energy=-788.2657868707922 free_energy=-788.2657868707922 dipole="0.012881155554085167 0.04629485125291407 0.11929115252425954" pbc="F F F"
N       15.89700626      15.17447704      16.67279194       0.00003600       0.00003908      -0.00010820      -0.06425158
N       14.64698737      13.27377821      12.28935152       0.00006227       0.00002869       0.00014056      -0.18194199
N       15.10347670      13.98435990      14.43121732       0.00014642       0.00010751       0.00009410      -0.11897641
N       15.10158791      14.12675261      16.66464908      -0.00000620       0.00003911       0.00006966      -0.01140220
N       12.68765222      16.57314363      14.31723946      -0.00008712       0.00000367      -0.00002779       0.01416094
N       17.00009536      16.52761863      15.16469157      -0.00012335      -0.00009526       0.00008776      -0.17765603
N       14.71753480      13.55494303      15.65478187      -0.00005711      -0.00007850       0.00003838      -0.04403305
N       16.40852012      15.79461662      15.77728230       0.00010541       0.00005745      -0.00000054       0.30185435
N       14.79000361      13.51531368      13.37752544      -0.00016674      -0.00009792      -0.00031664       0.29845564
N       13.65896921      16.49217343      14.82304448       0.00009041      -0.00000384       0.00002271      -0.01620967
