4
Properties=species:S:1:pos:R:3:forces:R:3:charge:R:1 energy=-312.50458196892953 free_energy=-312.50458196892953 dipole="2.496895073918287e-15 -2.2325179484445862e-15 2.864085525965094e-15" pbc="F F F"
N        0.49600398       0.49600398       0.49600398       0.00010570       0.00010570       0.00010570       0.00000000
N        0.49600398      -0.49600398      -0.49600398       0.00010570      -0.00010570      -0.00010570      -0.00000000
N       -0.49600398       0.49600398      -0.49600398      -0.00010570       0.00010570      -0.00010570      -0.00000000
N       -0.49600398      -0.49600398       0.49600398      -0.00010570      -0.00010570       0.00010570      -0.00000000
