6
Properties=species:S:1:pos:R:3:forces:R:3:charge:R:1 formula=N6 topology=ring-6 n_edges=6 n_rings=1 ff_energy=11.2891 mace_energy_eV=-8939.201374 delta_E_eV_atom=0.4957820852619079 sg=P-1 energy=-471.3758764530126 free_energy=-471.3758764530126 dipole="1.6652156913384762e-09 -4.181515994859869e-09 2.361842175965964e-09" pbc="F F F"
N       16.10593035      15.40519251      15.53920598      -0.00004844      -0.00001834      -0.00002498       0.00000000
N       15.71227018      14.18283850      15.70917162      -0.00002911       0.00003488      -0.00003556       0.00000000
N       15.39366010      16.22235400      14.83003453      -0.00002060      -0.00005251       0.00001268      -0.00000000
N       14.60633962      13.77764606      15.16996603       0.00001433       0.00005596      -0.00000238       0.00000000
N       14.28772998      15.81716133      14.29082822       0.00003408      -0.00003761       0.00002738      -0.00000000
N       13.89406967      14.59480740      14.46079409       0.00004974       0.00001762       0.00002286      -0.00000000
