4
Properties=species:S:1:pos:R:3:forces:R:3:charge:R:1 formula=N4 topology=ring-3-substituted n_edges=4 n_rings=1 ff_energy=273.5567 mace_energy_eV=-5961.490257 delta_E_eV_atom=-0.009886565971783057 sg=P1 energy=-313.71104214760527 free_energy=-313.71104214760527 dipole="6.163719649094308e-07 -5.8948805293788745e-06 -7.494117300553644e-06" pbc="F F F"
N       14.24314224      15.79873497      14.82857059       0.00005255      -0.00017315      -0.00027626      -0.00226890
N       16.05884116      13.42864693      13.94469722       0.00005504      -0.00025316      -0.00036308       0.00227799
N       15.90538563      14.03266132      14.84980468      -0.00005352       0.00025166       0.00036331      -0.00227795
N       14.09007965      16.40312342      15.73349579      -0.00005407       0.00017465       0.00027602       0.00226886
