8
Properties=species:S:1:pos:R:3:forces:R:3:charge:R:1 formula=N8 topology=bicyclic-3-3 n_edges=9 n_rings=2 ff_energy=550.3136 mace_energy_eV=-11917.236647 delta_E_eV_atom=0.7080967782349035 sg=P-1 energy=-625.2862172938983 free_energy=-625.2862172938983 dipole="6.251307147739826e-06 9.26881438938478e-06 1.1407776793338901e-07" pbc="F F F"
N       16.27765383      13.83615176      15.01624152       0.00002476      -0.00004924       0.00000851      -0.04099885
N       14.68567683      15.26112890      15.46561817      -0.00000857      -0.00001848      -0.00000429      -0.05856776
N       16.54603348      12.83668049      13.99217195       0.00001973       0.00002295      -0.00002810       0.04977959
N       13.45396130      17.16331662      16.00781512      -0.00000461       0.00002739      -0.00005464       0.04978731
N       13.72234283      16.16384491      14.98376929      -0.00001981       0.00005220      -0.00000789      -0.04099828
N       15.31431910      14.73886659      14.53439239       0.00001781       0.00003228       0.00000592      -0.05856472
N       12.64868336      16.27862850      15.96038432      -0.00001450      -0.00003568       0.00006125       0.04977782
N       17.35131379      13.72136515      14.03965009      -0.00001481      -0.00003140       0.00001923       0.04978488
