4
Properties=species:S:1:pos:R:3:forces:R:3:charge:R:1 formula=N4 topology=chain integrity=OK energy_eV=-5958.673837 delta_E_eV_atom=0.821 sg=P1 energy=-313.71104214919103 free_energy=-313.71104214919103 dipole="-2.9811100556539326e-06 1.1318560828318432e-06 -1.6838791484936895e-07" pbc="F F F"
N        0.72686087       0.16915760      -0.95587209      -0.00008602       0.00012266      -0.00020084      -0.00227561
N       -0.34170080      -0.70329155       1.83562495      -0.00009560       0.00015786      -0.00027774       0.00227090
N        0.34165009       0.70327243      -1.83561419       0.00009342      -0.00012763       0.00020598       0.00227433
N       -0.72681017      -0.16913847       0.95586133       0.00008820      -0.00015289       0.00027260      -0.00226962
