10
Properties=species:S:1:pos:R:3:forces:R:3:charge:R:1 formula=N10 topology=bicyclic-3-5 n_edges=11 n_rings=2 ff_energy=256.0596 mace_energy_eV=-14902.10986 delta_E_eV_atom=0.1516916545233471 sg=P1 energy=-788.8152033314836 free_energy=-788.8152033314836 dipole="-0.3770581085413501 -0.4621256424258917 0.1332141086503855" pbc="F F F"
N       15.91594146      15.08200053      15.74460965      -0.00004877      -0.00007504      -0.00009244       0.29140583
N       14.39588554      13.44544736      15.49698988       0.00014132       0.00009620       0.00017736       0.33834845
N       15.15989554      14.07808150      16.17091285      -0.00017545      -0.00022668      -0.00024335      -0.11382315
N       17.24546422      16.65091154      15.77944556       0.00008105       0.00011998       0.00005392      -0.05643239
N       16.01356861      15.51110519      14.49042638      -0.00003124      -0.00003648      -0.00001491      -0.15184092
N       16.83942769      16.47967277      14.54433295      -0.00006715      -0.00006117       0.00002479      -0.05473796
N       16.68500296      15.79467001      16.54126936       0.00002358       0.00002934       0.00005801      -0.11627398
N       13.64753075      12.72876855      15.08020202       0.00007146       0.00016148       0.00004934      -0.13227671
N       13.40578383      15.97996791      14.42495765       0.00001460       0.00011136       0.00018016      -0.02862707
N       13.09564840      16.81858621      13.78732877      -0.00000940      -0.00011898      -0.00019288       0.02425790
