2
Properties=species:S:1:pos:R:3:initial_charges:R:1:initial_magmoms:R:1:forces:R:3:charge:R:1 N2=T charge=1 mult=2 PG=Dinfh |=T B3LYP/aug-cc-pVDZ=T src:=T B=T p.7=T (B3LYP/aug-cc-pVDZ)=T energy=-138.87402177211516 free_energy=-138.87402177211516 dipole="0.5582940616379848 -6.011532237888624e-17 -1.1927324740174392e-16" pbc="F F F"
N        0.02413226       0.00000000       0.00000000       1.00000000       1.00000000       0.00001442      -0.00000000      -0.00000000       0.50000485
N        1.09246774      -0.00000000      -0.00000000       0.00000000       0.00000000      -0.00001442       0.00000000       0.00000000       0.49999515
