9
Properties=species:S:1:pos:R:3:forces:R:3:charge:R:1 formula=N9 topology=bicyclic-5-5 n_edges=10 n_rings=2 ff_energy=181.4093 mace_energy_eV=-13405.666044 delta_E_eV_atom=0.8442283580343428 sg=P1 energy=-707.4339604203803 free_energy=-707.4339604203803 dipole="0.12037500158752806 0.5105312737254668 0.4778635931531943" pbc="F F F"
N       15.56393526      17.14836467      16.40932150       0.00007829       0.00022008       0.00011387       0.30284887
N       14.20991593      12.03825923      14.13788805       0.00008640       0.00008732      -0.00008155      -0.14116703
N       15.83342152      18.15834424      16.82644892      -0.00002297      -0.00006187      -0.00004141      -0.15879082
N       14.58925852      13.36004375      14.23812400      -0.00003291      -0.00001941       0.00011028       0.21533788
N       14.30928719      12.11179924      12.82881516      -0.00004504      -0.00001886      -0.00004907      -0.03292044
N       14.67224373      13.35753861      12.83117998       0.00000778      -0.00011716      -0.00007686      -0.15332534
N       15.24036650      16.00795754      16.26204833       0.00001151      -0.00000880       0.00016867      -0.03929967
N       15.10828083      15.32627539      15.14444700       0.00002470       0.00011069      -0.00027572      -0.00602120
N       14.75809714      14.13703644      15.20515430      -0.00010776      -0.00019200       0.00013180       0.01333776
