10
Properties=species:S:1:pos:R:3:forces:R:3:charge:R:1 formula=N10 topology=bicyclic-3-3-4-5 n_edges=13 n_rings=4 ff_energy=587.1717 mace_energy_eV=-14895.805209 delta_E_eV_atom=0.7821568297611066 sg=P1 energy=-783.4471670979624 free_energy=-783.4471670979624 dipole="-0.16691330208708494 -0.32351469669625516 -0.35727337728569936" pbc="F F F"
N       16.65490002      14.24898099      16.39394902       0.00036613       0.00021381      -0.00003428       0.02492522
N       16.09592117      15.47667807      16.91665760      -0.00009222      -0.00013509       0.00034126      -0.07839590
N       13.41799572      14.66896101      14.08566507       0.00003774       0.00005077       0.00014705       0.00689144
N       15.36597484      13.65359750      16.27625247      -0.00033699      -0.00014909       0.00017662      -0.15085822
N       16.01238941      15.77785370      14.80051475       0.00008579      -0.00002230       0.00004622      -0.13055358
N       15.74097735      16.20183507      15.96195314       0.00001084      -0.00000234      -0.00028643       0.01068539
N       14.35758442      15.00851457      13.39080216      -0.00006726      -0.00000480      -0.00002505       0.06699322
N       14.53800229      13.74007462      14.03046398       0.00004219      -0.00014166      -0.00007421      -0.06943269
N       15.41428840      13.87393896      15.03096598      -0.00003312       0.00022189      -0.00029603       0.39318441
N       16.65685795      14.45983785      14.93057877      -0.00001308      -0.00003118       0.00000485      -0.07343930
