9
Properties=species:S:1:pos:R:3:forces:R:3:charge:R:1 formula=N9 topology=bicyclic-3-5 n_edges=10 n_rings=2 ff_energy=285.7776 mace_energy_eV=-13411.187784 delta_E_eV_atom=0.23070170283244806 sg=P1 energy=-710.0358519456455 free_energy=-710.0358519456455 dipole="-0.5648975822050296 0.27217751463958295 -0.24245243162421376" pbc="F F F"
N       16.78437351      13.94698315      14.13952503       0.00011113       0.00036755       0.00005765      -0.11214265
N       16.78775116      13.79940510      16.25591324       0.00029279       0.00033186       0.00000930      -0.04988049
N       12.64626882      15.81770748      14.13508522       0.00026214       0.00015250       0.00014144       0.29938080
N       14.69667008      14.90798591      13.89027252       0.00004856      -0.00012842       0.00020829      -0.11067603
N       17.46362409      13.57090294      15.13936262      -0.00016059      -0.00037825       0.00013808      -0.05004556
N       15.64646478      14.42667007      14.64445735      -0.00011530      -0.00010615      -0.00024295       0.28823940
N       13.66072430      15.33124351      14.54485677      -0.00028453      -0.00014154      -0.00020377       0.00667963
N       15.66910269      14.32415403      15.98172724      -0.00002011      -0.00018500      -0.00011050      -0.13611168
N       11.62354378      16.28571306      14.04957353      -0.00013408       0.00008745       0.00000246      -0.13544341
