9
Properties=species:S:1:pos:R:3:forces:R:3:charge:R:1 formula=N9 topology=bicyclic-4-4 n_edges=10 n_rings=2 ff_energy=175.4576 mace_energy_eV=-13408.61331 delta_E_eV_atom=0.5167544009595986 sg=P1 energy=-707.2400983095457 free_energy=-707.2400983095457 dipole="0.32658733753303976 0.09378307930759727 -0.25135542477133516" pbc="F F F"
N       13.71136643      15.08110475      15.97496204       0.00012533      -0.00005768       0.00015061       0.11765646
N       15.90485230      15.10755734      14.82965518      -0.00005429       0.00008721       0.00007016      -0.12610821
N       14.67943274      13.43540259      16.17862617       0.00006052       0.00019543       0.00021751      -0.09468248
N       13.58443238      13.87652816      16.67094987      -0.00012752       0.00008960      -0.00033701      -0.11422749
N       12.98613177      16.07178201      15.53741573      -0.00015967      -0.00009061       0.00028816       0.08667521
N       16.32564365      14.99066908      13.70754165       0.00017194      -0.00013795      -0.00023547       0.30910506
N       11.96399755      16.54818451      15.83865236       0.00020834      -0.00001726      -0.00015636      -0.15349097
N       14.83864751      14.50631730      15.36145142      -0.00000783      -0.00016252      -0.00019216       0.12903252
N       16.96056548      15.06708888      12.78845866      -0.00021682       0.00009379       0.00019455      -0.15396011
