8
Properties=species:S:1:pos:R:3:forces:R:3:charge:R:1 formula=N8 topology=bicyclic-3-3-5-6 n_edges=11 n_rings=4 ff_energy=560.8715 mace_energy_eV=-11915.607917 delta_E_eV_atom=0.911688033673272 sg=P1 energy=-626.2609071165678 free_energy=-626.2609071165678 dipole="0.008243651268800363 0.00651676585989567 0.008183034408852206" pbc="F F F"
N       16.29029397      14.47665519      14.13043047      -0.00023362      -0.00005761      -0.00012185      -0.02333012
N       14.98528985      13.95330008      14.03762999       0.00005027      -0.00014828      -0.00016694       0.01229995
N       16.03876498      15.73466150      14.73565754      -0.00005475      -0.00002009       0.00009390       0.03435860
N       15.44527243      15.10380636      15.83625008      -0.00013806       0.00010953       0.00012855       0.03435804
N       14.16407150      15.54783848      15.41966983       0.00033436      -0.00005188       0.00008855      -0.02333124
N       14.77074849      16.19269393      14.29463805      -0.00004657      -0.00001303       0.00006360      -0.02333042
N       14.08133446      14.97414687      14.13532583      -0.00002413       0.00007118      -0.00026419       0.01230368
N       15.68361200      13.83178991      15.25544989       0.00011249       0.00011018       0.00017838      -0.02332849
