6
Properties=species:S:1:pos:R:3:forces:R:3:charge:R:1 formula=N6 topology=polycyclic-3-3 integrity=REARRANGED energy_eV=-8926.909434 delta_E_eV_atom=2.6712 sg=P1 energy=-470.91182641860195 free_energy=-470.91182641860195 dipole="-0.11203714678155341 -0.16827843663623762 0.10146901836095475" pbc="F F F"
N        0.74041844       1.11858921      -0.67363592      -0.00013858      -0.00038072       0.00021206       0.31006487
N       -0.90843518      -1.72494634       0.32036226      -0.00000646      -0.00005304       0.00013538       0.02209550
N        0.48240967       0.09577318      -0.11984956       0.00002649       0.00026494      -0.00002294      -0.14861370
N       -0.79859213      -0.29184464       0.26490570       0.00006599       0.00000429       0.00012633      -0.01603996
N        1.23443282       1.98627334      -1.18409087       0.00008182       0.00014110      -0.00014527      -0.18963971
N       -0.75023362      -1.18384475       1.39230838      -0.00002926       0.00002344      -0.00030556       0.02213301
