5
Properties=species:S:1:pos:R:3:forces:R:3:charge:R:1 formula=N5 topology=bicyclic-3-4 n_edges=6 n_rings=2 ff_energy=330.9056 mace_energy_eV=-7447.210917 delta_E_eV_atom=0.9204942810565626 sg=P1 energy=-389.25041161959786 free_energy=-389.25041161959786 dipole="0.04235485389326102 -0.00856872112224643 0.0506795076498305" pbc="F F F"
N       15.13153016      15.56920339      15.55811870       0.00021571       0.00030311      -0.00027489       0.04981513
N       15.49986556      14.17963506      15.01786842       0.00012371      -0.00017944       0.00024067       0.04989243
N       14.93314750      14.42070590      16.19422928      -0.00017080      -0.00021465       0.00001289      -0.04919932
N       14.47529635      15.73019208      14.27823101      -0.00021012       0.00003043       0.00017053      -0.02527247
N       14.77305770      14.60677851      13.84157703       0.00004150       0.00006055      -0.00014921      -0.02523576
