9
Properties=species:S:1:pos:R:3:forces:R:3:charge:R:1 formula=N9 topology=bicyclic-3-3-4 n_edges=11 n_rings=3 ff_energy=576.1488 mace_energy_eV=-13411.006345 delta_E_eV_atom=0.25086158666385927 sg=P1 energy=-710.06687061729 free_energy=-710.06687061729 dipole="-0.1305081408993936 -0.6458987018736748 -0.1847455554450583" pbc="F F F"
N       16.14172591      17.28269942      15.48518715       0.00004766      -0.00002659       0.00021394      -0.04875282
N       14.66781955      15.76197584      15.55842841      -0.00013190       0.00020041      -0.00009920      -0.16709114
N       13.89625541      13.30940969      14.97406182       0.00029097      -0.00008112       0.00011068       0.29399987
N       16.67704108      16.30222002      14.88662202       0.00018397      -0.00022251       0.00032673      -0.10665558
N       15.76837989      15.33132108      14.91930568      -0.00013620       0.00000179       0.00011470       0.27341514
N       15.94919178      14.14056113      14.39664112       0.00000200      -0.00005407      -0.00038934      -0.10081242
N       15.00519512      13.29753163      14.49040756       0.00002552       0.00022611      -0.00022893       0.01985645
N       14.92633194      16.95862150      15.89276638      -0.00010423       0.00003948      -0.00036702      -0.04969675
N       12.86296989      13.01248639      15.30962905      -0.00017779      -0.00008350       0.00031845      -0.11426275
