7
Properties=species:S:1:pos:R:3:forces:R:3:charge:R:1 formula=N7 topology=bicyclic-3-5-5 n_edges=9 n_rings=3 ff_energy=293.6017 mace_energy_eV=-10427.415636 delta_E_eV_atom=0.7318725504180748 sg=P1 energy=-550.0046493610549 free_energy=-550.0046493610549 dipole="-0.13057204391571803 0.06380237125538987 -0.053334735919734186" pbc="F F F"
N       13.88340072      15.65397737      15.18520882      -0.00037914       0.00009003       0.00001221      -0.05756902
N       16.08262664      14.34997739      14.11316313      -0.00014794       0.00011872       0.00005541      -0.05699201
N       13.21730037      15.75360106      12.97424093       0.00009133       0.00000338       0.00004924      -0.16947902
N       15.27391159      15.11166984      16.93229770       0.00000641       0.00002952       0.00006553      -0.18036017
N       14.86031989      15.20933170      15.86617495       0.00031567      -0.00009998       0.00013527       0.20780216
N       17.05639779      13.84224409      14.23245451       0.00017540      -0.00013830      -0.00008495      -0.01135000
N       13.73272567      15.59355749      13.97306857      -0.00006172      -0.00000338      -0.00023271       0.26794805
