8
 energy: -23.236425664947 gnorm: 0.000626162045 xtb: 6.6.1 (8d0f1dd)
N            0.68401169461307       -0.00141510989134        0.00084225125134
N            1.07804057740206        1.23028516339838       -0.00004896194435
N            0.00332873918991        1.93394296459334       -0.00153743614857
N           -1.07388736431866        1.23408968431293       -0.00165347142491
N           -0.68412470666580        0.00118500104401       -0.00018187829118
N           -1.07787309025372       -1.23037009903150       -0.00004551580258
N           -0.00333447623953       -1.93373472326669        0.00101924529890
N            1.07384936766698       -1.23398370887310        0.00160291888005
