7
Properties=species:S:1:pos:R:3:forces:R:3:charge:R:1 formula=N7 topology=ring-4-substituted n_edges=7 n_rings=1 ff_energy=89.4132 mace_energy_eV=-10430.55766 delta_E_eV_atom=0.2830120119522235 sg=P1 energy=-550.0046493908433 free_energy=-550.0046493908433 dipole="0.1173814701410839 0.09691542182678076 0.027943094725935997" pbc="F F F"
N       17.32013104      16.06610918      14.94251597      -0.00003769      -0.00000218       0.00000123      -0.16948473
N       13.95129222      16.00872182      14.86118233      -0.00009658      -0.00006301      -0.00002272       0.20778588
N       15.07008811      16.58630226      15.03590130       0.00014966       0.00003029       0.00001936      -0.05759014
N       12.81533741      16.17117604      14.88183337      -0.00001783      -0.00000014      -0.00000035      -0.18032741
N       14.76990888      13.92331277      14.32575692       0.00005193       0.00001579      -0.00009148      -0.05696319
N       14.13154298      13.05500419      14.08330179      -0.00004911      -0.00000919       0.00008392      -0.01137608
N       16.18530616      16.09607142      14.92815659      -0.00000038       0.00002844       0.00001004       0.26795567
