8
Properties=species:S:1:pos:R:3:forces:R:3:charge:R:1 formula=N8 topology=bicyclic-5-5 n_edges=9 n_rings=2 ff_energy=170.176 mace_energy_eV=-11921.124801 delta_E_eV_atom=0.22207763618484933 sg=P1 energy=-630.1952822705766 free_energy=-630.1952822705766 dipole="0.006810344404903608 -0.004225558921363782 0.019613087942207678" pbc="F F F"
N       15.82002983      13.48095838      13.89201895      -0.00007798      -0.00001173       0.00009463      -0.01227241
N       13.51853681      17.16170349      13.46444856      -0.00001011      -0.00014518      -0.00002589      -0.20183442
N       15.79395811      13.87252908      17.39231936       0.00021692      -0.00038475       0.00021824      -0.19842797
N       14.00901175      16.49659516      14.23088252      -0.00003283       0.00026534       0.00000681       0.28823382
N       15.99437647      13.35592484      12.81463282       0.00009517      -0.00003327      -0.00006822       0.00567895
N       14.72028179      15.72504880      14.79939198      -0.00007252       0.00002673      -0.00008990      -0.08999349
N       15.31183532      14.55530982      16.63792322      -0.00002132       0.00015933       0.00000214       0.29999481
N       14.62189099      15.36028760      16.08863487      -0.00009732       0.00012352      -0.00013781      -0.09137929
