8
Properties=species:S:1:pos:R:3:forces:R:3:charge:R:1 formula=N8 topology=bicyclic-3-6 n_edges=9 n_rings=2 ff_energy=234.4183 mace_energy_eV=-11920.1491 delta_E_eV_atom=0.3440402414512391 sg=P1 energy=-629.1546964488033 free_energy=-629.1546964488033 dipole="0.002993640592976897 -0.016080561373288227 -0.0009581877962551071" pbc="F F F"
N       14.39552715      15.40233131      13.68397312       0.00026312       0.00021735      -0.00007661      -0.03997433
N       15.92615414      13.46198515      15.75536853      -0.00030056       0.00019277      -0.00020374      -0.01792014
N       13.50166205      15.11151471      14.51096419      -0.00042737      -0.00019094       0.00001918       0.09690294
N       15.23950176      16.55168522      15.29442996      -0.00032890      -0.00024847       0.00014633       0.08804342
N       14.63792293      15.88069678      16.16664493       0.00016535       0.00013949      -0.00037445      -0.05012251
N       15.03498573      16.54771840      14.05805337       0.00003037      -0.00001219       0.00012027      -0.04672129
N       13.41573637      15.48730067      15.70319180       0.00031791       0.00006309       0.00007342      -0.04701538
N       16.62808165      13.14434865      16.53780600       0.00028008      -0.00016110       0.00029559       0.01680729
