6
Properties=species:S:1:pos:R:3:forces:R:3:charge:R:1 formula=N6 topology=bicyclic-3-3 n_edges=7 n_rings=2 ff_energy=546.9159 mace_energy_eV=-8937.367163 delta_E_eV_atom=0.8014838810236142 sg=P-1 energy=-468.48964809713254 free_energy=-468.48964809713254 dipole="-7.183782455671396e-07 -6.177294927578156e-06 1.114782666738442e-06" pbc="F F F"
N       15.68685205      14.96096136      15.22612929      -0.00001732       0.00001524       0.00004411      -0.07701395
N       15.72133533      14.59162972      16.61389955       0.00002062      -0.00001764       0.00002063       0.03850989
N       15.85822125      15.76900817      16.40137375       0.00001788       0.00001197       0.00000199       0.03850406
N       14.31314715      15.03903594      14.77387034       0.00001850      -0.00000516      -0.00004592      -0.07701395
N       14.27866379      15.40837110      13.38609910      -0.00001484       0.00001425      -0.00000672       0.03850406
N       14.14177886      14.23099265      13.59862559      -0.00002485      -0.00001868      -0.00001409       0.03850989
