4
Properties=species:S:1:pos:R:3:forces:R:3:charge:R:1 formula=N4 topology=branched-tree n_edges=3 n_rings=0 ff_energy=7.6658 mace_energy_eV=-5954.395836 delta_E_eV_atom=1.7637186632116482 sg=P1 energy=-306.98264411066316 free_energy=-306.98264411066316 dipole="-1.990924443447007e-05 1.466201097001944e-05 -1.657389258165091e-05" pbc="F F F"
N       15.21184220      14.98731011      15.09344046       0.00012591      -0.00023857       0.00003048       0.50484358
N       15.48437794      16.08522976      15.64223278      -0.00015403       0.00016491      -0.00012369      -0.16828008
N       14.30187692      14.92587197      14.22794759       0.00005934       0.00017131       0.00011102      -0.16826813
N       15.84925767      13.95083424      15.41013272      -0.00003122      -0.00009765      -0.00001781      -0.16829537
