8
 energy: -23.189559997431 gnorm: 0.000894106437 xtb: 6.6.1 (8d0f1dd)
N            0.38541022301894       -0.17531701688156        0.00006239586089
N            1.30929565751895        0.47148204029583       -0.00065556709248
N            2.04706961333531        1.41382225049522       -0.00009893386618
N            3.36429227909716        1.40667847418367        0.00122315775056
N            3.91061983937174        2.54468298266501       -0.00043473122216
N            5.22780793341229        2.53674029012792       -0.00003578623000
N            5.96676825156513        3.47792647381666        0.00047130466744
N            6.89203338560990        4.12319578292880       -0.00053250425191
