7
Properties=species:S:1:pos:R:3:forces:R:3:charge:R:1 formula=N7 topology=branched-tree n_edges=6 n_rings=0 ff_energy=13.0003 mace_energy_eV=-10430.611295 delta_E_eV_atom=0.2753498434503854 sg=P1 energy=-550.0046493913885 free_energy=-550.0046493913885 dipole="-0.0029596029259351497 -0.12546404023279856 -0.09073163448740343" pbc="F F F"
N       14.11798625      16.00278101      15.84178195       0.00000999      -0.00007328      -0.00007449      -0.05698532
N       16.03544802      17.32828068      13.90561345       0.00008127       0.00012508      -0.00002586      -0.18036464
N       14.56898029      14.29331498      13.85145464      -0.00012537      -0.00023129       0.00005296       0.26795511
N       15.27954156      15.20587503      13.45399603       0.00009098       0.00005352      -0.00011687      -0.05758713
N       15.47474685      16.33230058      14.00977846      -0.00009463      -0.00008881       0.00007539       0.20779610
N       14.07287922      13.27223019      13.83740014       0.00005953       0.00013728       0.00000514      -0.16945419
N       13.96852164      16.75182323      16.63981170      -0.00002178       0.00007751       0.00008373      -0.01135993
