8
Properties=species:S:1:pos:R:3:forces:R:3:charge:R:1 formula=N8 topology=branched-tree n_edges=7 n_rings=0 ff_energy=19.0749 mace_energy_eV=-11922.412177 delta_E_eV_atom=0.061155518136501996 sg=P1 energy=-630.1945647387442 free_energy=-630.1945647387442 dipole="-0.004070749561442197 -0.019786114602516936 -0.007628377972184331" pbc="F F F"
N       13.85163841      13.54267511      14.23572763       0.00024262       0.00014157       0.00002648      -0.01177100
N       16.24977727      15.55894583      14.94015717      -0.00010389       0.00007171       0.00004524      -0.08942392
N       14.21904971      17.70650013      16.55304561       0.00006829      -0.00012135      -0.00009556      -0.20489089
N       14.80626112      16.86044104      16.09489125      -0.00007241       0.00015841       0.00009013       0.28876904
N       16.64461997      14.48566966      14.59919741      -0.00006662       0.00008654       0.00003185       0.29793812
N       15.23439779      15.78999765      15.78775175       0.00010900      -0.00009954      -0.00004273      -0.08744338
N       17.21442675      13.63730609      14.12514029       0.00006925      -0.00009623      -0.00002224      -0.20505482
N       12.96326773      12.92592266      14.04639505      -0.00024625      -0.00014112      -0.00003317       0.01187685
