3
Properties=species:S:1:pos:R:3:forces:R:3:charge:R:1 formula=N3 topology=chain n_edges=2 n_rings=0 ff_energy=1.6836 mace_energy_eV=-4470.844331 delta_E_eV_atom=0.08123411625138033 sg=C2/m energy=-234.71578175023822 free_energy=-234.71578175023822 dipole="1.831305981672809e-06 -6.345697824592568e-05 -2.123644750725525e-06" pbc="F F F"
N       14.98686043      14.97771358      15.05272373       0.00001397      -0.00000459       0.00010590       0.35718937
N       14.93459291      16.12035186      14.94309158      -0.00001169       0.00010523      -0.00006283      -0.17862273
N       15.03913161      13.83508210      15.16238569      -0.00000228      -0.00010063      -0.00004307      -0.17856664
