6
Properties=species:S:1:pos:R:3:forces:R:3:charge:R:1 formula=N6 topology=bicyclic-3-4 n_edges=7 n_rings=2 ff_energy=321.9211 mace_energy_eV=-8942.398037 delta_E_eV_atom=-0.03699519842962218 sg=P1 energy=-470.7322253918274 free_energy=-470.7322253918274 dipole="-0.012574739125011655 -0.0043886483201881306 -0.0026367479899636593" pbc="F F F"
N       13.83564488      13.69932285      15.22515511       0.00013820       0.00025608      -0.00006974      -0.01146186
N       13.40683881      15.27178294      14.57380646       0.00016509      -0.00019869      -0.00000734      -0.01148078
N       14.92308816      13.72063362      15.56499437      -0.00024261      -0.00003797      -0.00002427      -0.02515098
N       15.65283762      15.20999083      15.31043029       0.00002906      -0.00014947       0.00015872       0.17621593
N       14.31221065      15.96084422      14.63700838      -0.00027806       0.00003928       0.00000001      -0.02504798
N       16.68914780      15.57964117      15.52040460       0.00018832       0.00009078      -0.00005737      -0.10307433
