8
Properties=species:S:1:pos:R:3:forces:R:3:charge:R:1 formula=N8 topology=bicyclic-3-5 n_edges=9 n_rings=2 ff_energy=248.6482 mace_energy_eV=-11920.760328 delta_E_eV_atom=0.26763675701977263 sg=P1 energy=-627.5830870278281 free_energy=-627.5830870278281 dipole="-0.14137261794062111 -0.03537714868714734 0.07517632287213254" pbc="F F F"
N       14.48679443      14.22724665      16.60459980      -0.00011272       0.00007036      -0.00000170       0.01825100
N       16.71868651      15.46746891      14.55298061       0.00003591      -0.00001501      -0.00003672      -0.16532091
N       15.45739670      13.99444927      15.85362459       0.00030096      -0.00023931      -0.00011464      -0.10118632
N       12.84583196      14.55331918      12.67886784      -0.00033529      -0.00007045      -0.00034534       0.02265322
N       14.93103265      16.16340986      15.88423347      -0.00007975       0.00006712       0.00006524      -0.10118209
N       14.17991091      15.49175921      16.62243799       0.00002966       0.00014029      -0.00002712       0.01824908
N       13.58055419      14.72079487      13.47703404       0.00033699       0.00007202       0.00034738      -0.02115121
N       15.82475382      15.23968296      15.32131482      -0.00017576      -0.00002502       0.00011290       0.32968723
