9
Properties=species:S:1:pos:R:3:forces:R:3:charge:R:1 formula=N9 topology=bicyclic-3-3 n_edges=10 n_rings=2 ff_energy=525.9749 mace_energy_eV=-13407.053195 delta_E_eV_atom=0.6901004707249285 sg=P1 energy=-705.2309917209308 free_energy=-705.2309917209308 dipole="-0.11198753961039788 -0.02885206345050098 0.03679122882928785" pbc="F F F"
N       14.56990485      16.56782832      15.67296802       0.00015356       0.00012105       0.00003467      -0.04345777
N       16.08228769      16.64026435      13.81677308      -0.00023941       0.00004527      -0.00007559      -0.14687812
N       14.31460058      12.39948545      13.97798675      -0.00004879      -0.00010969       0.00004099      -0.16641449
N       14.80092872      16.75797706      14.28708355       0.00033777      -0.00014444       0.00004318       0.00561942
N       15.27034482      15.60683851      13.55928819       0.00000464       0.00007592       0.00004407       0.10533993
N       14.76869851      13.42590687      13.95655610       0.00021609       0.00038137      -0.00003221       0.30683934
N       13.75159126      17.64420884      16.21238798      -0.00038760       0.00009333      -0.00006113       0.00607874
N       14.93291332      17.64746982      16.49414231       0.00018324      -0.00019976      -0.00000633       0.04280552
N       15.45212906      14.39195694      14.13268166      -0.00021949      -0.00026304       0.00001234      -0.10993258
