5
Properties=species:S:1:pos:R:3:forces:R:3:charge:R:1 formula=N5 topology=chain n_edges=4 n_rings=0 ff_energy=4.9947 mace_energy_eV=-7449.736899 delta_E_eV_atom=0.41529792325923154 sg=P1 energy=-393.05197052421994 free_energy=-393.05197052421994 dipole="-0.026888071836398516 -0.0442054162355011 -0.017424384988939872" pbc="F F F"
N       15.07027603      15.11571945      15.04551936      -0.00012798       0.00009523      -0.00012002      -0.05786675
N       15.45296584      14.02133753      15.50273132       0.00026710      -0.00011683       0.00024057       0.20970212
N       14.14395642      15.31498120      14.23618282      -0.00025443       0.00006940      -0.00022403       0.20988538
N       16.16451979      13.43000971      16.17762428       0.00000211      -0.00006912       0.00001016      -0.18082290
N       13.51686935      16.04541038      13.61599895       0.00011320       0.00002132       0.00009333      -0.18089786
