10
Properties=species:S:1:pos:R:3:forces:R:3:charge:R:1 formula=N10 topology=ring-3-substituted n_edges=10 n_rings=1 ff_energy=262.2282 mace_energy_eV=-14899.467543 delta_E_eV_atom=0.41592336131861884 sg=P1 energy=-787.8963839097768 free_energy=-787.8963839097768 dipole="-0.13164584530346837 -0.09479079923509913 0.050674745195708346" pbc="F F F"
N       13.05279497      13.80175511      15.26961922      -0.00001723       0.00006689       0.00008897      -0.03368882
N       15.10592880      14.60028203      15.34011999       0.00006004      -0.00003608      -0.00005381      -0.08909176
N       16.22461041      14.76381831      14.65678657       0.00000974       0.00003816       0.00008080      -0.05080915
N       11.87007919      14.15618605      17.21212970       0.00004422      -0.00011935       0.00000711      -0.16484319
N       15.00868730      15.81238334      12.51959986      -0.00017751      -0.00009822       0.00015110      -0.02077524
N       17.23277965      15.30117100      15.00632138       0.00004654       0.00001620      -0.00000615       0.29142568
N       18.27645217      15.72531847      15.04672906      -0.00007348      -0.00004463      -0.00003137      -0.18327425
N       14.18629947      13.99769204      14.69138488      -0.00006588       0.00002575       0.00001103      -0.03391854
N       14.00064034      15.40685639      12.69830291       0.00017870       0.00010209      -0.00014566      -0.00638071
N       12.58252383      14.07046558      16.34671040      -0.00000515       0.00004919      -0.00010201       0.29135598
