9
Properties=species:S:1:pos:R:3:forces:R:3:charge:R:1 formula=N9 topology=ring-5-substituted n_edges=9 n_rings=1 ff_energy=37.6337 mace_energy_eV=-13409.712805 delta_E_eV_atom=0.3945882780424199 sg=P1 energy=-709.4787651452965 free_energy=-709.4787651452965 dipole="-0.02145556247779144 -0.027827991906870787 -0.01858821518333214" pbc="F F F"
N       17.09508095      15.06324519      16.69989923       0.00013319      -0.00019177       0.00030120      -0.05947102
N       14.05394206      13.40247803      13.41290541       0.00035370       0.00005909       0.00012169       0.27792305
N       16.01402453      14.17626904      14.33579072       0.00009601       0.00008423      -0.00009192      -0.07977543
N       16.93377315      16.07223841      16.06664017      -0.00000169       0.00015796      -0.00015481       0.28727128
N       16.91649230      17.13466345      15.69172783      -0.00011820       0.00011114      -0.00010684      -0.17968904
N       16.72923323      13.81935146      16.44695022      -0.00007362      -0.00005787      -0.00004876      -0.04432131
N       15.14456489      13.91229510      13.43061141      -0.00007756      -0.00009121       0.00011360      -0.02345092
N       16.09603264      13.50254649      15.43125027       0.00003167      -0.00008019       0.00003188      -0.00919781
N       13.05592284      13.00095388      13.07172325      -0.00034351       0.00000861      -0.00016606      -0.16928880
