4
Properties=species:S:1:pos:R:3:forces:R:3:charge:R:1 formula=N4 topology=branched-tree integrity=OK energy_eV=-5948.726882 delta_E_eV_atom=3.3077 sg=P1 energy=-311.15971919362914 free_energy=-311.15971919362914 dipole="-0.0022507652193971216 0.005156166018002648 -0.010188444706062451" pbc="F F F"
N        0.74043991       0.22938801      -0.19811992      -0.00007459      -0.00029672      -0.00012935       0.10405579
N        0.17371096      -0.95790325      -0.37142259       0.00006422       0.00027776       0.00007349      -0.10406207
N       -0.12269844       0.84069684       0.60321869      -0.00001980       0.00012037       0.00013928      -0.10405774
N       -0.79145243      -0.11218162      -0.03367618       0.00003018      -0.00010141      -0.00008343       0.10406402
