6
Properties=species:S:1:pos:R:3:forces:R:3:charge:R:1 energy=-471.37587645141116 free_energy=-471.37587645141116 dipole="5.3286678401032617e-14 -1.9939910307949802e-13 -5.437430009244947e-15" pbc="F F F"
N        1.29538084       0.00000000      -0.00000000      -0.00021070      -0.00000000       0.00000000      -0.00000000
N        0.64769042       1.12183272      -0.00000000      -0.00010535      -0.00018248      -0.00000000       0.00000000
N       -0.64769042       1.12183272       0.00000000       0.00010535      -0.00018248       0.00000000       0.00000000
N       -1.29538084       0.00000000      -0.00000000       0.00021070      -0.00000000      -0.00000000      -0.00000000
N       -0.64769042      -1.12183272      -0.00000000       0.00010535       0.00018248      -0.00000000       0.00000000
N        0.64769042      -1.12183272       0.00000000      -0.00010535       0.00018248       0.00000000       0.00000000
