9
Properties=species:S:1:pos:R:3:forces:R:3:charge:R:1 formula=N9 topology=ring-3-substituted n_edges=9 n_rings=1 ff_energy=260.5002 mace_energy_eV=-13410.679065 delta_E_eV_atom=0.2872260796566479 sg=P1 energy=-708.5302374133242 free_energy=-708.5302374133242 dipole="0.027206137009117493 0.10848995157979155 0.03668506720199064" pbc="F F F"
N       15.42594275      14.74241092      15.52094018      -0.00010191      -0.00006829       0.00010714      -0.07849671
N       14.88043124      16.87878334      14.85981089      -0.00009498       0.00040366      -0.00027120       0.27139557
N       12.95248599      13.14651111      16.23240541      -0.00000071       0.00012971       0.00006006      -0.01444701
N       13.75123519      13.04662749      15.48042800       0.00000885      -0.00013250      -0.00007403      -0.02140912
N       16.67878549      13.38888478      14.21243312       0.00003388      -0.00015271      -0.00006961       0.29364370
N       17.26494236      12.54558819      13.74432428       0.00002292       0.00003967       0.00006006      -0.18302711
N       14.91145928      15.91088748      15.57531951      -0.00002559      -0.00011890       0.00014752      -0.01883313
N       16.14853019      14.43529389      14.44970511       0.00004982       0.00011675      -0.00011384      -0.07386604
N       14.69393637      17.90280941      14.41816370       0.00010772      -0.00021739       0.00015390      -0.17496015
