5
Properties=species:S:1:pos:R:3:forces:R:3:charge:R:1 formula=N5 topology=branched-tree n_edges=4 n_rings=0 ff_energy=9.3226 mace_energy_eV=-7451.544887 delta_E_eV_atom=0.053700209428825474 sg=P1 energy=-393.05197052297 free_energy=-393.05197052297 dipole="-0.008647969342908525 0.04144515712026039 -0.034465741745448676" pbc="F F F"
N       14.17393857      15.15672490      15.24202310      -0.00042991      -0.00005936       0.00023039       0.20973973
N       17.38064365      14.85663882      14.22609372       0.00033612      -0.00010700      -0.00002537      -0.18090984
N       15.31675527      14.65970348      15.23725375       0.00009780      -0.00004623      -0.00000784      -0.05787414
N       13.10721633      15.17092468      15.65837064       0.00036018       0.00005210      -0.00018096      -0.18079584
N       16.28713297      15.00114599      14.53392206      -0.00036418       0.00016050      -0.00001622       0.20984008
