10
formula=N10 topology=bicyclic-4-4 n_edges=11 n_rings=2 ff_energy=171.4613 mace_energy_eV=-15966.350603 delta_E_eV_atom=-106.27238258302464 sg=P1
N  21.93284761  14.81664692  14.75721087
N  11.60797907  13.75470065  14.95652251
N  14.75041087  16.44062118  15.89272504
N  13.43132706  16.28658187  16.55982487
N  13.45826704  16.81357950  15.79862663
N  18.53905776  11.56768215  13.38528627
N  13.63977949  15.15840215  16.53204808
N  14.34430073  15.72452569  16.24965201
N  13.97379301  16.10035100  15.04335795
N  12.49507676  14.54493403  15.17381745
