10
formula=N10 topology=ring-3-substituted n_edges=10 n_rings=1 ff_energy=292.7609 mace_energy_eV=-14900.289767 delta_E_eV_atom=0.33370095638292696 sg=P1
N  12.97832750  13.35258699  14.41020217
N  12.76432008  13.37115427  13.23415797
N  15.75431210  14.72155243  13.36196780
N  14.32958722  14.36642016  17.16923438
N  13.39830099  14.42347994  17.84845762
N  14.97926236  13.93973632  13.45517833
N  15.27030748  14.30973656  16.49161327
N  17.70437404  17.43888940  14.91710608
N  17.70075665  17.62811308  16.00592126
N  14.16196645  12.94361158  13.59139540
