10
formula=N10 topology=ring-5-substituted n_edges=10 n_rings=1 ff_energy=39.8501 mace_energy_eV=-14902.576145 delta_E_eV_atom=0.10506324430571112 sg=P1
N  14.01671892  14.63017706  14.28049086
N  12.72728460  14.73486725  14.14253480
N  12.44263424  13.89506306  13.19200809
N  14.79174678  15.29062018  15.24123600
N  17.35818228  12.97395041  14.71866378
N  13.55973816  13.30188862  12.79158438
N  14.16114576  16.31149734  15.63113135
N  17.77214265  13.90881346  14.31458620
N  13.69924676  17.23091365  16.04847307
N  14.56395570  13.75879252  13.47558380
