10
formula=N10 topology=ring-3-substituted n_edges=10 n_rings=1 ff_energy=262.2089 mace_energy_eV=-14900.291210 delta_E_eV_atom=0.33355673339951863 sg=P1
N  15.19020327  16.92702196  11.54338855
N  13.88037286  13.71834958  17.81946276
N  14.01829312  14.97684070  17.52592535
N  17.01475369  14.32625668  14.94161816
N  15.10958855  12.95344170  17.43849066
N  14.22325810  12.86503147  16.63897739
N  14.03598919  16.07196161  17.38846663
N  17.47014287  13.45215942  14.44790594
N  15.67692385  17.73723012  12.21214548
N  14.70468750  16.11516466  10.87558491
