10
formula=N10 topology=ring-4-substituted n_edges=10 n_rings=1 ff_energy=112.6527 mace_energy_eV=-14898.751911 delta_E_eV_atom=0.487486600698503 sg=P1
N  14.66483823  13.93110322  14.48787741
N  13.90714705  13.62061254  15.92350070
N  13.62714847  13.81334557  13.54585971
N  12.85740687  14.05822064  15.99169371
N  14.37964888  17.19383167  15.77528238
N  13.42174419  15.02788821  13.37702683
N  17.23918901  13.48518356  16.01905686
N  14.38875774  16.27041345  15.15231249
N  17.08650831  12.39613093  16.05904381
N  14.49698473  15.36504161  14.24450786
