10
formula=N10 topology=bicyclic-3-4-7 n_edges=12 n_rings=3 ff_energy=352.9893 mace_energy_eV=-24391.670288 delta_E_eV_atom=-948.8043510522152 sg=P1
N  14.69090522  15.42231794  15.55938907
N  15.43429747  14.20796578  14.65665847
N  16.30099217  15.48182703  13.93776399
N  14.37861048  16.52760669  17.07054909
N  17.82905557  17.15456961  13.40296980
N  16.76867560  14.19342365  14.17419283
N  14.50189893  9.35035193  12.71673308
N  13.70822810  15.78789191  16.39717018
N  13.66700130  14.74723802  14.75517703
N  13.91067213  15.48579373  16.56690895
