10
formula=N10 topology=bicyclic-3-4-5 n_edges=12 n_rings=3 ff_energy=336.5048 mace_energy_eV=-14898.932250 delta_E_eV_atom=0.4694526586754364 sg=P1
N  13.33780098  16.07639084  13.14922156
N  15.93266746  14.70217876  15.23955479
N  14.35134209  16.35026127  12.57590575
N  14.93250927  15.54055509  14.74535653
N  15.27380016  17.16487250  17.43984131
N  15.69801556  13.51745449  14.88024094
N  15.06006476  16.86082715  15.10111656
N  15.15973362  16.95466041  16.35424587
N  14.42821717  15.20237135  13.56713793
N  15.53818536  12.46135272  14.56908987
