10
formula=N10 topology=branched-tree n_edges=9 n_rings=0 ff_energy=23.2954 mace_energy_eV=-14903.309327 delta_E_eV_atom=0.03174497072018312 sg=P1
N  11.11769817  13.78536931  11.74371659
N  10.42980629  13.37972291  10.97930977
N  14.34237416  15.57836770  14.24902620
N  15.61493840  13.39456746  16.79029434
N  18.11833719  17.34007336  16.31235676
N  17.14554094  13.02580950  18.49133552
N  16.37811134  13.20371928  17.64308455
N  19.02172205  17.69310912  16.94494120
N  17.21175731  16.97961711  15.68550541
N  13.58522617  14.79598517  14.07293724
