10
formula=N10 topology=bicyclic-4-5-5-5-5 n_edges=14 n_rings=5 ff_energy=781.0987 mace_energy_eV=-42273.242756 delta_E_eV_atom=-2736.9615979343575 sg=P1
N  16.54757816  14.40884149  14.93265573
N  12.75270787  13.91616020  15.62645238
N  14.48457722  17.48954138  12.01285792
N  14.99809965  13.79423438  16.72966314
N  19.61577490  16.91987711  7.68352887
N  14.42620741  12.67082063  16.28626326
N  15.73926988  14.57799752  15.49726185
N  14.19851339  14.35694281  15.97578381
N  15.90736216  14.44616808  17.72804806
N  15.28011306  13.83094962  16.96752781
