10
formula=N10 topology=bicyclic-4-4-7 n_edges=12 n_rings=3 ff_energy=224.8327 mace_energy_eV=-20952.931200 delta_E_eV_atom=-604.930442246025 sg=P1
N  17.39287854  14.19755974  13.75476610
N  18.39484640  12.99791148  14.34443842
N  16.66377631  14.37556672  13.08117630
N  7.74705428  17.81442854  16.41924093
N  17.15582102  13.93033255  13.48183602
N  12.36747346  14.77733502  12.47257620
N  14.16648930  19.29841407  15.79947357
N  16.11593133  15.10951698  14.17589534
N  17.72548105  10.70792834  21.07415400
N  12.50625598  16.97784311  13.55070317
