10
formula=N10 topology=bicyclic-3-5-5-5 n_edges=13 n_rings=4 ff_energy=907.7657 mace_energy_eV=-14901.621414 delta_E_eV_atom=0.20053626542153324 sg=P1
N  15.44558230  13.50527189  15.97077282
N  16.43114996  13.86090652  12.82167984
N  14.89532247  12.48886249  14.14344369
N  15.14422793  17.15219410  15.41069272
N  16.13760457  17.56720456  15.17166007
N  16.20656671  14.13434146  15.11911578
N  14.72069948  12.58115762  15.37103243
N  12.25351971  14.12473734  17.19489829
N  12.67443133  14.93119626  16.57405660
N  16.02481019  13.65591152  13.90476593
