10
formula=N10 topology=bicyclic-6-6 n_edges=11 n_rings=2 ff_energy=38.6017 mace_energy_eV=-14899.053707 delta_E_eV_atom=0.4573069941338872 sg=P1
N  14.09473907  17.34653587  14.27578262
N  13.99311908  13.68461053  15.97368395
N  15.09946114  13.32307995  16.42501640
N  14.58240421  17.12992939  13.31134121
N  14.64628629  13.54983352  13.89066309
N  13.84308439  14.18554777  14.74743311
N  16.41100271  16.11692899  15.50261392
N  15.80060565  13.18784301  14.19186910
N  16.17107715  13.65562079  15.51214628
N  16.19526062  15.03949808  15.44890408
