10
formula=N10 topology=bicyclic-5-8 n_edges=11 n_rings=2 ff_energy=43.6084 mace_energy_eV=-14900.355589 delta_E_eV_atom=0.3271188191033616 sg=P1
N  15.24408381  16.66533666  16.05928378
N  15.48637430  13.64675223  13.73904737
N  12.56519006  14.04191418  15.08084240
N  16.44055424  16.36327453  15.57582009
N  13.52011516  14.13765972  14.53270947
N  14.75222452  15.57947515  16.64451359
N  16.68921144  15.09064552  15.86203178
N  15.64270154  14.60909081  16.51377829
N  14.51033331  14.50846926  13.77250463
N  16.41214869  13.08223400  13.52492771
