10
formula=N10 topology=bicyclic-3-5 n_edges=11 n_rings=2 ff_energy=251.1094 mace_energy_eV=-14898.525819 delta_E_eV_atom=0.5100958195453131 sg=P1
N  14.30535557  16.03626087  15.63669497
N  15.76990172  15.12685071  13.73203889
N  14.62833230  13.49563853  15.44182577
N  13.97845090  17.01240196  16.34266916
N  15.55630947  15.55262446  16.00815466
N  16.37959001  15.08256575  14.95617141
N  13.58828277  17.88597610  16.91260233
N  15.65169535  15.23095683  12.64020519
N  15.72445710  14.14798003  15.93720356
N  13.88134178  12.69753041  15.29381001
