10
formula=N10 topology=bicyclic-3-3 n_edges=11 n_rings=2 ff_energy=500.6716 mace_energy_eV=-14900.674617 delta_E_eV_atom=0.2952159636124634 sg=P1
N  18.59980956  14.56390796  13.70555260
N  17.95805674  13.65833453  13.78577994
N  17.30772473  12.58750771  13.84034928
N  16.01417648  12.71302124  14.38638180
N  12.75580316  15.02450826  16.00426862
N  14.37932962  13.85724025  15.22399987
N  12.41920318  16.22397161  16.13600439
N  14.05297322  15.01524811  15.46587734
N  15.68885625  13.85610369  14.69313319
N  12.06996487  17.27367188  16.25988455
