10
formula=N10 topology=bicyclic-4-4-4 n_edges=12 n_rings=3 ff_energy=246.7032 mace_energy_eV=-14903.894025 delta_E_eV_atom=-0.02672478818954005 sg=P1
N  15.26148569  12.39305102  15.46549752
N  18.18074348  14.11640080  12.44598627
N  10.52109218  15.55881893  20.22996102
N  14.37352005  11.73476832  15.47795161
N  17.92803379  14.04747839  13.51850900
N  17.38797220  15.66568358  17.61966034
N  17.56601107  14.76155613  17.01158164
N  18.02878602  17.19854051  10.46671760
N  17.65936980  17.98089852  9.77777951
N  9.46999261  15.55051877  20.57266193
