10
formula=N10 topology=bicyclic-3-5 n_edges=11 n_rings=2 ff_energy=256.0596 mace_energy_eV=-14902.109860 delta_E_eV_atom=0.1516916545233471 sg=P1
N  16.10232595  14.89921141  15.54993243
N  14.41503540  12.83231898  15.90313320
N  13.94954050  13.45068895  16.76058054
N  16.98360566  16.84732934  15.70151385
N  15.84493449  15.53049373  14.44384218
N  16.40787009  16.76039739  14.53050759
N  16.79477150  15.69541048  16.34868422
N  14.83312004  12.16041606  15.05976054
N  13.64492702  17.21428898  14.41801130
N  13.42801835  17.17865625  13.34450922
