10
formula=N10 topology=bicyclic-4-5-5 n_edges=12 n_rings=3 ff_energy=564.6788 mace_energy_eV=-14902.581813 delta_E_eV_atom=0.10449638382556259 sg=P1
N  12.36608721  14.25097464  14.46722354
N  15.03274574  16.01951522  16.58195059
N  13.21858228  13.58671418  13.69880924
N  17.58778740  13.08684906  14.04774142
N  14.43305629  13.81308423  14.10028288
N  15.38741088  15.06042426  15.84218849
N  14.27606098  14.62472634  15.11123515
N  17.64554101  14.02763134  13.48150491
N  14.83610223  16.86634239  17.27266413
N  13.03360267  14.90961551  15.36916845
