10
formula=N10 topology=bicyclic-4-5 n_edges=11 n_rings=2 ff_energy=140.8182 mace_energy_eV=-14897.404618 delta_E_eV_atom=0.6222159214075873 sg=P1
N  14.80624116  14.72535236  14.93465947
N  15.96066047  12.44340010  13.89794100
N  16.94678019  14.22404668  14.10175818
N  15.17651660  15.28265424  16.15038142
N  15.64784822  14.03508577  14.21889039
N  13.65585595  16.37794178  17.51677067
N  17.12817064  12.89128487  13.75998830
N  14.07329754  15.74440790  16.64613255
N  12.83644465  15.17820411  15.53242740
N  13.51522635  14.63019388  14.69458702
