10
formula=N10 topology=branched-tree n_edges=9 n_rings=0 ff_energy=23.2342 mace_energy_eV=-14900.895863 delta_E_eV_atom=0.27309143273714653 sg=P1
N  17.54717916  16.08484398  16.93679878
N  16.75113946  14.27078868  12.66117489
N  17.83325766  15.95692300  18.04942948
N  16.61630417  13.87544883  13.68929978
N  13.50554260  14.65191239  15.43958344
N  16.52446866  13.39466318  14.86128456
N  17.24601410  16.20299400  15.82371870
N  15.41517423  13.68847345  15.50015265
N  14.55366648  14.40676228  14.79196380
N  12.57701585  14.85642675  16.01689630
