10
formula=N10 topology=bicyclic-3-5-6 n_edges=12 n_rings=3 ff_energy=362.9173 mace_energy_eV=-14900.872594 delta_E_eV_atom=0.27541827007553366 sg=P1
N  15.36121760  17.26542598  14.52224554
N  14.06882990  13.81696688  16.36312959
N  15.93862874  14.75221003  15.87678839
N  14.25182244  17.02994568  14.11686841
N  15.00071243  15.04767545  14.99594442
N  15.49601489  12.20099000  13.44811447
N  15.35846794  13.96718821  16.71578812
N  15.19365853  15.92666980  13.94052718
N  13.83756026  14.50592484  15.30034080
N  16.08131820  11.75550073  14.26739739
