10
formula=N10 topology=bicyclic-3-4 n_edges=11 n_rings=2 ff_energy=381.2271 mace_energy_eV=-14897.861092 delta_E_eV_atom=0.5765685128390032 sg=P1
N  17.03983632  14.05322613  16.38283857
N  15.22140138  16.68526440  14.15992483
N  17.72189689  15.03843893  16.46277367
N  13.35026966  14.39263279  13.41435104
N  15.69823595  15.45790755  14.36717328
N  15.21641429  17.03554484  15.47088457
N  15.63812605  15.74631252  15.71855902
N  13.54836354  13.33815806  13.84389228
N  13.11826968  15.43673321  12.97379937
N  16.31132385  15.20335195  16.82110479
