10
formula=N10 topology=ring-5-substituted n_edges=10 n_rings=1 ff_energy=38.2570 mace_energy_eV=-14899.279283 delta_E_eV_atom=0.43474942399279826 sg=P1
N  14.62650237  17.75242722  16.47381299
N  15.46835292  16.51782061  14.59243548
N  13.51627025  15.23241378  14.65713124
N  13.27052007  13.72759638  13.29329887
N  15.88595948  17.51076293  15.30282934
N  12.52937056  12.93252069  13.07106353
N  14.22732393  16.19427060  15.09498212
N  16.79138969  18.23096855  15.36832390
N  14.07211345  14.65476127  13.62387261
N  13.82970768  16.88421227  16.14645278
