10
formula=N10 topology=ring-7-substituted n_edges=10 n_rings=1 ff_energy=27.5975 mace_energy_eV=-14903.212742 delta_E_eV_atom=0.041403455700674385 sg=P1
N  16.10574481  12.37930258  16.88274622
N  15.88870284  15.86090151  15.06758184
N  12.87809453  17.27293370  11.80466702
N  11.39382844  14.55678959  16.76999810
N  13.13948638  16.31804194  11.31431258
N  16.22232189  15.72791318  16.16905185
N  17.03837758  12.71334100  16.28358065
N  15.54032230  16.00701524  13.97045951
N  11.96956457  14.91787523  17.64216809
N  17.97430509  13.03409394  15.68097555
