10
formula=N10 topology=bicyclic-3-5 n_edges=11 n_rings=2 ff_energy=314.8237 mace_energy_eV=-14898.784454 delta_E_eV_atom=0.48423229408035695 sg=P1
N  14.10961387  15.94321034  12.65497895
N  14.69588707  15.41343827  14.53208222
N  15.47014335  15.33074586  15.71475817
N  13.03535792  15.53317233  13.35842334
N  13.39803097  15.22125484  14.55158572
N  16.26304814  14.23745175  15.63289112
N  15.15727419  15.89657814  13.39604030
N  16.60692614  13.71730557  17.02434671
N  17.46219939  14.39175638  16.53072818
N  15.34250808  16.14615553  16.59492322
