10
formula=N10 topology=bicyclic-4-5 n_edges=11 n_rings=2 ff_energy=178.9111 mace_energy_eV=-16268.452348 delta_E_eV_atom=-136.4825570781543 sg=P1
N  17.94072854  14.06625840  15.98309461
N  16.92603033  15.20393579  17.03617895
N  15.32652580  16.09043976  17.31436316
N  16.01920068  13.88470133  16.66902136
N  16.06006400  14.79015942  14.09302559
N  18.10354800  15.21014013  12.98154048
N  14.61973496  15.54326258  17.19679343
N  9.71939897  13.84254175  12.03706174
N  16.74992690  15.33355590  16.59774523
N  16.52029007  15.03505793  12.61212004
