10
formula=N10 topology=ring-3-substituted n_edges=10 n_rings=1 ff_energy=294.6447 mace_energy_eV=-14900.858458 delta_E_eV_atom=0.2768319158203667 sg=P1
N  16.24321131  14.48620754  13.33098849
N  16.28299808  15.58051560  16.90251199
N  16.25881678  16.79297553  15.65330744
N  13.52461370  14.16950789  16.02807861
N  16.64079428  16.00848692  17.88762318
N  16.28969537  14.84475141  14.53815389
N  13.40284805  15.17114191  15.45891831
N  16.20875534  14.03366054  12.31547746
N  16.24482883  16.25623957  14.59009885
N  13.66672822  13.17230758  16.59485629
