10
formula=N10 topology=ring-3-substituted n_edges=10 n_rings=1 ff_energy=264.5121 mace_energy_eV=-14900.827308 delta_E_eV_atom=0.2799469341234726 sg=P1
N  12.02971873  15.73332048  14.51029145
N  16.97894036  16.46446228  16.69424919
N  15.93727583  16.72545028  13.66957445
N  16.27617809  16.42622067  15.82652836
N  15.09229604  16.17848938  12.61003666
N  15.83778695  13.15220010  13.82464256
N  15.43666547  16.36188423  14.91406141
N  12.09270432  15.34339704  15.53660891
N  14.88487755  17.35457112  12.86102160
N  14.74383948  13.19524233  13.93860265
