10
formula=N10 topology=ring-7-substituted n_edges=10 n_rings=1 ff_energy=27.6676 mace_energy_eV=-14899.153350 delta_E_eV_atom=0.44734275111181887 sg=P1
N  16.70562188  15.40965096  13.41663068
N  17.10890643  14.11582570  16.38257178
N  12.54459365  14.78018121  16.79081438
N  15.63984379  15.96783270  15.77524794
N  14.75991372  15.80068266  14.91317830
N  13.23774650  13.96544182  17.05580651
N  16.72853743  14.94118099  15.66541985
N  14.78064335  14.61815344  14.20138592
N  15.75672823  14.42153430  13.46224019
N  17.34832866  15.63359917  14.45464983
