10
formula=N10 topology=ring-7-substituted n_edges=10 n_rings=1 ff_energy=265.7582 mace_energy_eV=-16211.534131 delta_E_eV_atom=-130.79073534773943 sg=P1
N  24.32004474  20.33607876  12.76652543
N  13.96601050  14.98419728  15.36039271
N  13.40119514  13.77022247  14.09275905
N  13.97507560  14.75291921  15.80527902
N  14.73969743  13.59949260  15.80977547
N  13.39956390  12.74762601  14.24978697
N  12.26097918  14.34826543  13.92283416
N  13.36213617  14.68582454  16.46853407
N  16.40443621  17.04142358  14.58353216
N  12.63728320  13.41042294  15.12441995
