10
formula=N10 topology=branched-tree n_edges=9 n_rings=0 ff_energy=23.1776 mace_energy_eV=-14899.890363 delta_E_eV_atom=0.37364141271723383 sg=P1
N  13.95015549  14.23642648  16.16619800
N  16.06269521  13.97307273  13.04247000
N  15.03978730  14.19089496  16.53920024
N  11.17615056  14.17231254  14.67989072
N  15.47690181  12.98290475  13.12485258
N  12.26575681  14.06420853  14.83927776
N  17.52230237  16.75123952  13.40597364
N  13.52107677  13.90470684  14.86763002
N  16.93337895  15.84790332  13.65584674
N  16.23200835  14.89290475  14.09754581
