10
formula=N10 topology=ring-3-substituted n_edges=10 n_rings=1 ff_energy=239.3747 mace_energy_eV=-14901.916132 delta_E_eV_atom=0.17106447600917818 sg=P1
N  15.06521015  15.65351427  17.97813065
N  15.14765962  17.09065587  12.83662289
N  14.96942579  16.24773185  13.54794682
N  15.94250560  14.77364396  14.83852794
N  13.62681469  12.93743801  12.02065733
N  15.48564960  16.63481658  17.69503239
N  15.86257463  12.43856912  14.48932259
N  14.69966200  15.34778294  14.36813027
N  15.89620046  13.54845997  14.63964911
N  13.40068489  11.90443869  12.35100261
