10
formula=N10 topology=ring-3-substituted n_edges=10 n_rings=1 ff_energy=261.8772 mace_energy_eV=-14900.825713 delta_E_eV_atom=0.2801063650101696 sg=P1
N  14.04572592  16.32246062  12.49817481
N  12.91681390  15.73902626  14.58447925
N  16.18496084  16.28415838  12.76648860
N  13.46439750  16.46377843  15.23319723
N  12.92480791  16.16824474  12.88693720
N  17.18273764  16.36205322  12.28765536
N  13.75803629  13.13909432  16.52591147
N  12.29221473  14.32879589  17.86751204
N  15.10100718  16.18088433  13.41236470
N  13.02343771  13.73465848  17.19532682
