10
formula=N10 topology=bicyclic-3-5-7 n_edges=12 n_rings=3 ff_energy=270.2045 mace_energy_eV=-14899.070407 delta_E_eV_atom=0.45563700273896757 sg=P1
N  15.47286424  16.51714274  14.19000647
N  15.78462502  14.74711244  15.59778534
N  16.38204296  12.97864826  14.69081426
N  15.34534725  13.54569074  15.16383436
N  16.50719328  16.07467223  13.81675732
N  17.02084854  14.97243364  15.13160618
N  13.09796151  16.76382637  15.32630806
N  17.42793971  13.82669707  14.67335697
N  15.10581783  15.94644745  15.49403643
N  13.72482748  15.88844331  15.76375656
