10
formula=N10 topology=ring-3-substituted n_edges=10 n_rings=1 ff_energy=267.1288 mace_energy_eV=-14903.365745 delta_E_eV_atom=0.026103214074964853 sg=P1
N  18.21671685  15.45289390  15.56720074
N  14.83425305  12.78543512  15.27682319
N  13.28616196  18.08471477  14.22924046
N  11.72879262  14.30944566  16.19709021
N  13.80288418  18.96425294  13.80778005
N  12.19445833  15.20796434  15.75665667
N  17.41132097  16.11424515  15.06110781
N  16.54615745  11.46660573  14.43761262
N  15.68733190  12.12077034  14.85667431
N  16.59697482  16.76619042  14.55381255
