10
formula=N10 topology=bicyclic-3-3-5 n_edges=12 n_rings=3 ff_energy=464.3088 mace_energy_eV=-14902.576758 delta_E_eV_atom=0.10500186980380022 sg=P1
N  12.29596844  14.38737396  14.33532349
N  16.20121934  17.72962076  14.10046930
N  14.28925155  14.57379579  14.77828841
N  14.11411244  15.36421932  13.75442581
N  16.83183686  17.12921602  13.42930945
N  15.53878465  13.50083666  16.17808362
N  12.84987454  15.23867725  13.48349855
N  15.64612703  12.65061591  16.88364226
N  13.20612897  13.96659710  15.16433885
N  15.53975593  14.49663241  15.40381174
