10
formula=N10 topology=bicyclic-3-5-6-8 n_edges=13 n_rings=4 ff_energy=499.3879 mace_energy_eV=-17450.063003 delta_E_eV_atom=-254.64362257868515 sg=P1
N  16.41908331  16.38067911  14.02224830
N  14.14248556  14.33201058  18.05367446
N  15.31216253  13.58934830  14.93942526
N  22.78295289  8.24910725  10.44960546
N  15.79391671  14.90723357  15.79211135
N  14.78751527  15.34101862  16.19043630
N  15.39234074  15.13425012  15.88120939
N  13.90682066  11.79296521  11.15677907
N  13.38099145  14.48305662  13.19295280
N  8.09533968  26.82517203  18.80607328
