10
formula=N10 topology=ring-5-substituted n_edges=10 n_rings=1 ff_energy=560.6024 mace_energy_eV=-14901.572692 delta_E_eV_atom=0.20540854717751245 sg=P1
N  16.60872093  15.82933671  15.23986791
N  15.74929325  15.07789933  15.60229158
N  13.88656017  14.03667323  15.75718776
N  15.47859894  12.76439357  12.65768304
N  14.67965954  13.58632168  16.69969184
N  15.82408662  14.16287398  16.66968821
N  14.46122741  14.94615829  15.05246550
N  16.30349565  13.23386700  13.21956791
N  11.77948243  17.19093702  15.53409197
N  12.60254414  17.30067074  16.25987013
