10
formula=N10 topology=ring-3-substituted n_edges=10 n_rings=1 ff_energy=288.1733 mace_energy_eV=-14900.716865 delta_E_eV_atom=0.29099116998281715 sg=P1
N  15.79044066  13.45116587  12.05368888
N  16.55856110  14.27172217  12.52780640
N  16.47264389  14.70595885  18.74496100
N  13.49802733  15.77023055  13.01422039
N  14.43805995  14.98509518  13.20036442
N  16.84310821  16.78442138  14.73894284
N  16.74858606  16.16207795  15.64153922
N  12.62393978  16.45904252  12.91361194
N  15.27033405  14.82435866  12.10182432
N  16.49824815  14.51217448  19.83161483
