10
formula=N10 topology=ring-5-substituted n_edges=10 n_rings=1 ff_energy=44.0245 mace_energy_eV=-14901.621796 delta_E_eV_atom=0.20049811884928204 sg=P1
N  15.80113393  13.82705405  13.05147404
N  14.61958462  13.55263063  12.64481037
N  14.65034056  16.75290334  16.90612094
N  15.66563566  14.99664990  13.80619297
N  13.74521437  14.44162739  13.06807909
N  14.78436353  13.39626505  16.24867567
N  13.62648066  16.68610634  17.32037493
N  13.68955813  13.25457644  16.22452364
N  14.31054078  15.34496509  13.78104846
N  16.54374907  15.58316201  14.38670904
