10
formula=N10 topology=bicyclic-3-3 n_edges=11 n_rings=2 ff_energy=478.4197 mace_energy_eV=-14901.987160 delta_E_eV_atom=0.16396171530504944 sg=P1
N  15.21019804  14.92918872  16.01813543
N  13.69264170  13.43716965  17.04235018
N  11.12967259  15.72692812  15.58400802
N  14.44409260  14.11421713  16.56382990
N  17.35134243  14.52041766  15.87760387
N  18.35379374  14.80353413  16.28291151
N  15.72256689  15.64768709  12.33352079
N  14.67100881  15.73580739  12.65794737
N  16.26742302  14.18167819  15.36658526
N  11.90729795  15.76043919  14.79753422
