10
formula=N10 topology=bicyclic-4-5-6 n_edges=12 n_rings=3 ff_energy=164.4450 mace_energy_eV=-14895.757501 delta_E_eV_atom=0.7869275602597554 sg=P1
N  16.84676431  14.05609901  15.69982154
N  15.48131514  13.98028493  15.65946487
N  16.59144851  16.17683935  14.94894195
N  15.35892687  15.24048138  16.63630057
N  15.06937031  14.55555685  14.46507684
N  15.39146439  16.00771076  14.54630306
N  16.86934255  15.37444602  16.05595099
N  13.10194794  13.90762849  13.65642408
N  14.69278144  16.07652539  16.10488363
N  13.56249562  14.57831949  14.46298580
