10
formula=N10 topology=branched-tree n_edges=9 n_rings=0 ff_energy=22.0206 mace_energy_eV=-14900.565833 delta_E_eV_atom=0.3060944137705519 sg=P1
N  16.18397308  15.10119175  14.43147195
N  11.77554984  14.04401393  15.49711896
N  18.01951444  14.38351091  16.83671366
N  15.00271548  15.62790112  12.72635814
N  17.09416788  14.36424221  16.22560203
N  17.13196682  15.73816117  14.09657745
N  15.01478572  16.21397176  11.78603520
N  14.96693991  14.93646251  13.79951135
N  16.00688646  14.31554828  15.55458327
N  12.43448219  14.88845591  15.76853617
