10
formula=N10 topology=bicyclic-3-6 n_edges=11 n_rings=2 ff_energy=275.5108 mace_energy_eV=-14900.371589 delta_E_eV_atom=0.32551881266522287 sg=P1
N  14.82039931  15.20632525  17.73060904
N  16.24568337  12.70003226  12.12908763
N  14.64969778  16.43018740  17.58355558
N  15.28175586  15.39490706  15.32039874
N  15.89059064  14.84465960  14.40361539
N  15.63894610  17.05725022  16.75617457
N  15.18446960  13.73191749  13.97795371
N  15.79290364  13.22354486  12.99831486
N  15.99928043  16.55213774  15.70387169
N  14.92977721  14.12996742  18.01230426
