10
formula=N10 topology=branched-tree n_edges=9 n_rings=0 ff_energy=22.4478 mace_energy_eV=-14904.177494 delta_E_eV_atom=-0.055071664936804154 sg=P1
N  17.56137170  15.15069411  16.83612750
N  13.21345366  14.47836307  17.56225240
N  16.64102235  15.02146979  16.23941902
N  13.66204799  12.09498877  14.62412161
N  13.87085062  16.53921917  14.55875072
N  14.25547205  13.00824797  14.44257443
N  12.74436390  14.51106382  18.56416087
N  13.53320580  17.51076351  14.15713478
N  16.56794387  15.04910692  12.56974910
N  16.93288475  14.68894819  11.59117886
