10
formula=N10 topology=bicyclic-3-6-7 n_edges=12 n_rings=3 ff_energy=314.0110 mace_energy_eV=-14896.647502 delta_E_eV_atom=0.697927501880713 sg=P1
N  17.31455692  14.03872931  14.66669740
N  16.81606337  13.96600043  15.98011693
N  17.49722223  15.39977296  14.10038355
N  16.52209143  16.10297427  14.36947010
N  16.51972423  14.18770522  13.68881802
N  14.89548190  14.79640166  15.28088564
N  13.56388048  14.30324814  15.09210444
N  15.51146310  15.10755847  14.17494234
N  15.64590409  14.14670708  16.27882073
N  13.07520083  13.79403301  16.01099676
