10
formula=N10 topology=bicyclic-3-3 n_edges=11 n_rings=2 ff_energy=506.3892 mace_energy_eV=-14900.726002 delta_E_eV_atom=0.29007748064645966 sg=P1
N  16.84452779  14.89028808  11.79616126
N  15.93823331  14.79827437  12.48998192
N  13.40576258  17.09977958  15.46296737
N  13.97878499  16.52787549  17.63267535
N  13.68707024  16.81905224  16.54988158
N  14.69691731  13.99094294  15.59601415
N  14.79597771  14.38176894  14.31700841
N  15.81610772  13.69516048  16.16388178
N  15.95770142  14.38224629  13.82851780
N  16.69164079  13.39994745  16.77336303
