10
formula=N10 topology=bicyclic-5-6-7 n_edges=12 n_rings=3 ff_energy=517.3001 mace_energy_eV=-16363.302123 delta_E_eV_atom=-145.96753460855894 sg=P1
N  14.53845980  13.35688103  14.43909480
N  12.59078423  11.20360628  16.04434655
N  13.22768323  14.52167768  14.69924366
N  13.68565747  29.51540030  6.95469624
N  15.23852797  14.61570892  16.83416519
N  17.04820024  14.37208864  16.85850728
N  18.81210777  13.01117768  19.17091304
N  16.08009657  14.42250115  16.89771900
N  14.79631387  13.66038819  14.25421792
N  13.74658867  14.83183499  15.65740115
