10
formula=N10 topology=ring-5-substituted n_edges=10 n_rings=1 ff_energy=38.9093 mace_energy_eV=-14901.989038 delta_E_eV_atom=0.1637739511484142 sg=P1
N  14.07748938  17.67101647  14.84370634
N  13.89422545  12.47843221  13.81664575
N  14.15038725  17.16085011  13.86767522
N  14.44771112  14.43978179  16.24205273
N  15.08846576  14.15745986  14.97142658
N  14.74630575  14.82014486  11.38743021
N  15.26570280  14.17622986  17.14502744
N  15.97590595  13.97208386  17.98404802
N  14.83522545  13.85940537  10.84761274
N  14.44185474  13.25749559  14.40525291
