10
formula=N10 topology=bicyclic-4-5 n_edges=11 n_rings=2 ff_energy=173.5634 mace_energy_eV=-17625.423138 delta_E_eV_atom=-272.1796361377087 sg=P1
N  16.56538248  15.66946569  17.33285136
N  14.61733155  12.11356015  20.27662826
N  13.96738757  15.21188655  17.31888630
N  14.99210339  16.24727443  17.08420020
N  16.00821647  16.36169875  16.86097240
N  16.89590265  15.52850486  15.82945758
N  16.06426655  15.39731586  16.63968946
N  15.76528824  15.64665610  18.03272455
N  16.58065798  16.72827107  17.49814588
N  10.74728928  9.99988171  -5.89802121
