10
formula=N10 topology=ring-5-substituted n_edges=10 n_rings=1 ff_energy=43.3780 mace_energy_eV=-14902.145674 delta_E_eV_atom=0.14811026585175568 sg=P1
N  15.92081932  15.26469511  14.53673040
N  14.71867208  13.74115334  18.58401538
N  15.24659222  13.97670655  11.77739346
N  14.83391720  14.63896695  14.96500209
N  16.21571248  16.21705281  15.40588378
N  15.70331601  13.85264268  18.11922791
N  15.31887287  16.18104753  16.36739174
N  14.68220673  14.89354211  12.19669876
N  14.09676586  15.81886284  12.56343811
N  14.45492502  15.19437123  16.08925685
