10
formula=N10 topology=ring-5-substituted n_edges=10 n_rings=1 ff_energy=39.4685 mace_energy_eV=-14901.687202 delta_E_eV_atom=0.19395754267407028 sg=P1
N  16.80180326  15.93818239  16.54291862
N  13.56976611  16.24381389  15.08485780
N  14.42410314  12.38646845  12.82172940
N  16.03261936  14.27384650  15.43136341
N  12.74318080  15.75180133  15.61997922
N  14.41333674  13.71420792  16.99589156
N  16.91695472  15.20420017  15.46065505
N  15.30985645  14.42485239  16.61966677
N  15.83665622  15.53407309  17.28573299
N  13.80995014  12.87564746  13.59990335
