10
formula=N10 topology=bicyclic-3-5-5 n_edges=12 n_rings=3 ff_energy=848.4297 mace_energy_eV=-55263.553061 delta_E_eV_atom=-4035.992628413103 sg=P1
N  13.17468558  17.26241263  12.99100767
N  14.94760945  16.98008258  12.62891235
N  14.56270885  14.60575887  11.46570478
N  13.53709234  16.76165950  14.63103181
N  14.52526628  15.37246546  14.85342093
N  15.32297957  15.06950954  12.70634763
N  15.38659919  15.48115213  13.20069537
N  15.06690081  15.31898297  13.23603451
N  14.53844820  6.80951887  24.57033797
N  16.73649664  15.83948080  16.86005354
