10
formula=N10 topology=bicyclic-3-4-7 n_edges=12 n_rings=3 ff_energy=303.9015 mace_energy_eV=-14900.371476 delta_E_eV_atom=0.32553015340204183 sg=P1
N  16.01338835  12.25834273  25.40364151
N  15.21950122  16.53085532  12.11755051
N  14.94141705  15.48249492  11.19685840
N  13.94620803  14.61789422  11.81690552
N  17.37559895  16.52543329  13.07821439
N  15.08715329  14.19616812  11.85459952
N  11.97024303  17.67193681  14.35954411
N  12.36879289  16.68233329  14.08987658
N  15.70051420  11.99865959  24.37548031
N  16.36029781  16.50520272  12.60396720
