10
formula=N10 topology=bicyclic-5-5 n_edges=11 n_rings=2 ff_energy=170.2073 mace_energy_eV=-14902.579736 delta_E_eV_atom=0.10470414247129156 sg=P1
N  15.58490195  15.32658556  14.24488883
N  14.13927970  13.92305694  16.96880295
N  15.06305845  15.01949243  15.50778449
N  15.85548680  16.55854687  14.21472256
N  14.42470858  13.89610248  15.70256442
N  14.60387018  15.04444895  17.50523802
N  15.19681868  15.74174724  16.58133850
N  14.55675247  12.24598833  12.89189562
N  15.52140301  11.96727915  13.33943273
N  16.12850939  17.62580754  14.07937868
