10
formula=N10 topology=bicyclic-4-5 n_edges=11 n_rings=2 ff_energy=629.8956 mace_energy_eV=-15972.914151 delta_E_eV_atom=-106.92873743021846 sg=P1
N  15.76630798  14.95116825  15.01728060
N  13.54724621  13.72298124  16.79151004
N  14.67350994  16.25186879  15.96973714
N  18.80496101  15.89159884  14.48872219
N  14.77882292  16.09707792  15.52453356
N  9.21927899  15.27656238  4.92242784
N  14.45202105  13.36609022  17.96907042
N  16.24520080  14.65522009  16.84222470
N  14.80869992  16.52708186  16.69510144
N  16.17449267  14.35192034  16.12427769
