10
formula=N10 topology=ring-3-substituted n_edges=10 n_rings=1 ff_energy=257.5226 mace_energy_eV=-14897.939725 delta_E_eV_atom=0.5687052228495304 sg=P1
N  16.81712442  14.97717259  13.77798538
N  15.17976303  13.93199129  14.86347536
N  13.25834531  14.03802725  16.27272485
N  14.58958870  13.38615514  16.05554831
N  13.41474093  12.84580817  15.70289144
N  16.26744886  14.42398940  15.10366527
N  12.42671969  16.03068935  15.93688080
N  17.92951745  15.22476371  13.70619136
N  11.98394406  16.95854954  16.37049287
N  12.93555743  15.05499597  15.36356105
