10
formula=N10 topology=ring-4-substituted n_edges=10 n_rings=1 ff_energy=86.7236 mace_energy_eV=-14904.098554 delta_E_eV_atom=-0.047177687134308144 sg=P1
N  16.94522282  17.97997388  15.21320637
N  14.53205502  14.79012389  13.62505142
N  12.84693225  16.54552423  16.37339776
N  11.77681659  16.57705303  16.64763242
N  14.29788278  14.17934923  12.73464548
N  15.89689032  11.70674950  14.79636210
N  16.57809760  15.32461010  17.66155509
N  16.09428224  14.76451717  16.83767997
N  15.84769095  17.83968297  15.20912806
N  16.33241653  10.73829215  15.10934749
