10
formula=N10 topology=bicyclic-4-6-6 n_edges=12 n_rings=3 ff_energy=208.2616 mace_energy_eV=-47754.739653 delta_E_eV_atom=-3285.1112876128186 sg=P1
N  16.15794797  13.18806026  13.40713094
N  13.35407116  17.72138665  15.85921250
N  15.15549525  16.05200430  15.42527401
N  16.29516151  14.83159421  14.72512829
N  14.70680721  16.95853374  14.43947994
N  14.79916640  15.01617913  15.12603127
N  13.55901116  10.52377746  11.74766656
N  14.74883267  17.58139823  15.25017846
N  14.59307976  15.07010169  14.79871888
N  14.67548180  13.51128779  15.55315358
