10
formula=N10 topology=bicyclic-3-4-6 n_edges=12 n_rings=3 ff_energy=375.1776 mace_energy_eV=-14894.664802 delta_E_eV_atom=0.8961975383017489 sg=P1
N  14.91608450  14.41262154  13.59596304
N  14.40916782  14.62007204  16.07670968
N  13.06752598  14.83914319  16.08299559
N  15.11727341  15.92378432  14.20488504
N  16.61157254  15.02590866  15.81128429
N  13.56863646  14.72415111  13.88403328
N  13.71400107  16.03545125  14.16981178
N  16.63744791  14.50619602  16.85073182
N  15.27056778  15.58031659  15.50477755
N  13.43447346  13.99685311  15.27575954
