10
formula=N10 topology=ring-3-substituted n_edges=10 n_rings=1 ff_energy=262.2282 mace_energy_eV=-14899.467543 delta_E_eV_atom=0.41592336131861884 sg=P1
N  13.94244820  13.16633301  15.69539030
N  15.18831612  13.75349212  14.97793588
N  15.38725313  15.12352373  15.19471890
N  12.52494147  14.71794770  16.97133626
N  14.85319423  15.71977656  11.81845409
N  16.58209672  15.34725706  15.48495771
N  17.61690559  15.66167752  15.75697770
N  14.06251823  13.50896980  14.37632457
N  14.18194892  16.51966428  12.16151268
N  13.20117351  14.11728654  16.35009588
