10
formula=N10 topology=bicyclic-3-4 n_edges=11 n_rings=2 ff_energy=303.9138 mace_energy_eV=-14898.276568 delta_E_eV_atom=0.5350208661477609 sg=P1
N  13.38016280  14.60401151  12.44302742
N  15.52081234  13.15607765  15.21900237
N  15.27577652  14.42090185  14.81130048
N  13.97018282  13.64314248  12.95138730
N  15.98411861  13.16678268  16.38303307
N  16.37672176  13.08627643  17.42333763
N  13.65690322  16.53408187  13.70081335
N  14.87784194  14.43699560  13.60422027
N  13.12563752  17.44168317  14.04648663
N  14.26617700  15.61662146  12.97225725
