10
formula=N10 topology=bicyclic-4-5-5 n_edges=12 n_rings=3 ff_energy=184.4536 mace_energy_eV=-14899.381872 delta_E_eV_atom=0.4244905395680689 sg=P1
N  15.90411443  15.19083908  14.86207528
N  13.66191526  14.29572145  13.73017944
N  12.70163200  14.61543993  16.11318863
N  13.67972603  15.69706888  14.44343613
N  13.90391173  13.46015765  14.53688779
N  14.12257681  14.16041270  15.92879067
N  17.48997365  16.63087054  15.86662864
N  14.64208367  15.37713438  15.42954501
N  12.45437929  15.47139568  15.28377814
N  16.71339879  15.97219649  15.42086925
