10
formula=N10 topology=bicyclic-3-3-5 n_edges=12 n_rings=3 ff_energy=1028.5663 mace_energy_eV=-14903.300125 delta_E_eV_atom=0.032665220675198725 sg=P1
N  14.03535248  11.86393891  18.19747574
N  15.78869711  14.85403040  12.41601620
N  17.12329709  18.27372305  13.04121941
N  14.76691070  13.26999102  13.76607374
N  16.26723516  18.47947758  12.37412736
N  15.09898960  11.84010350  17.89826840
N  14.38065652  15.86679738  15.88419537
N  14.21987126  15.24908055  16.85184235
N  15.27789542  14.05884801  13.08625786
N  14.55430390  16.48551252  14.91648520
