10
formula=N10 topology=bicyclic-3-3-5 n_edges=12 n_rings=3 ff_energy=483.2709 mace_energy_eV=-14898.158609 delta_E_eV_atom=0.5468168533038806 sg=P1
N  15.73967672  15.35203175  15.72223925
N  14.23000237  15.19817335  14.19491579
N  12.90373025  16.42931761  12.64288443
N  15.10719049  15.97419027  14.77294985
N  13.53042134  15.89054899  13.38029237
N  15.92450452  13.94164671  15.70260745
N  17.04243431  13.66846926  16.10520769
N  16.87599241  16.03481808  16.21711097
N  17.14641022  15.56509493  17.46751854
N  17.82397509  14.93473141  16.50911859
