10
formula=N10 topology=bicyclic-3-5-6 n_edges=12 n_rings=3 ff_energy=279.6444 mace_energy_eV=-14899.101267 delta_E_eV_atom=0.45255102373562295 sg=P1
N  15.57732138  16.47925617  13.78814694
N  15.69355352  15.23509272  14.06287223
N  15.63529534  13.52455387  15.62823993
N  14.60780094  12.90326797  15.47194906
N  15.10813106  15.69874135  16.25586348
N  15.53638745  14.92905158  15.30887667
N  15.28914329  17.34592848  14.73244291
N  15.00042402  16.93648198  15.94672219
N  13.39857332  13.77590342  14.96547640
N  12.41969200  13.18995285  14.86262045
