10
formula=N10 topology=ring-4-substituted n_edges=10 n_rings=1 ff_energy=117.6433 mace_energy_eV=-14903.366641 delta_E_eV_atom=0.02601360033122546 sg=P1
N  15.78306956  15.72475098  12.33810502
N  18.00569592  15.39695717  15.96866000
N  11.83468696  16.39590948  14.59278624
N  16.03502896  14.62800485  16.91930250
N  13.42814488  12.45151794  18.24514313
N  17.02368984  15.01251695  16.45027157
N  12.16861393  15.62960230  15.31441288
N  16.61157069  16.08126320  11.61310309
N  14.95869205  15.37121596  13.07571535
N  12.89280225  13.10028030  17.53039968
