10
formula=N10 topology=ring-3-substituted n_edges=10 n_rings=1 ff_energy=266.6291 mace_energy_eV=-14903.355703 delta_E_eV_atom=0.0271074379854781 sg=P1
N  16.86119920  12.78453282  18.40011196
N  14.57831519  12.72290130  14.46295681
N  15.29874380  16.66058271  11.85887418
N  13.82144931  12.61326065  13.66674632
N  15.59946002  17.47663411  11.09459604
N  15.22883226  15.98663808  18.16702690
N  16.37026070  12.66218341  17.41880935
N  14.99953561  15.83778584  12.61999681
N  13.70179568  17.72166165  18.34446011
N  14.46514912  16.85492485  18.25742945
