10
formula=N10 topology=bicyclic-3-4 n_edges=11 n_rings=2 ff_energy=325.6993 mace_energy_eV=-14902.411039 delta_E_eV_atom=0.12157382540317485 sg=P1
N  15.03905449  17.21711191  11.09153179
N  16.23686816  14.54379808  16.29454831
N  12.55671314  13.54082488  16.90848607
N  14.62032215  18.25067608  10.89516208
N  15.07340042  16.85797175  14.22601777
N  12.53712195  12.82454872  14.67062420
N  16.39097327  15.52474492  16.85852123
N  16.53432144  16.55358248  17.28802489
N  15.31088476  15.69844990  14.13238925
N  12.51455177  13.14520180  15.79688768
