10
formula=N10 topology=branched-tree n_edges=9 n_rings=0 ff_energy=22.3302 mace_energy_eV=-14904.003440 delta_E_eV_atom=-0.03766627766367492 sg=P1
N  15.49213740  12.80906520  12.56311249
N  14.62104804  13.38000011  16.12552622
N  13.54701758  18.59867307  16.70439196
N  13.10812098  15.32586342  12.65289983
N  14.25320471  14.42143708  16.06328553
N  14.38142703  17.92291478  16.96239460
N  18.08255487  15.76167250  18.39455852
N  16.20568616  11.98978731  12.35713140
N  12.34808829  16.12324340  12.56205176
N  17.12347965  15.80903688  17.84572109
