10
formula=N10 topology=ring-5-substituted n_edges=10 n_rings=1 ff_energy=39.3499 mace_energy_eV=-14901.856187 delta_E_eV_atom=0.17705904124773042 sg=P1
N  14.37268873  15.43664431  12.54364714
N  14.29516738  14.75393785  17.98196162
N  14.89168854  15.68533834  11.59326158
N  15.29898568  14.86564723  18.76943889
N  16.08622054  15.23341346  16.80089889
N  16.40565029  15.16328523  18.03633238
N  13.71350153  15.15052334  13.57694945
N  13.95595195  14.94369226  15.67942006
N  14.78832478  14.98092058  16.77768288
N  14.58235936  15.20224079  14.65373815
