10
formula=N10 topology=bicyclic-3-3 n_edges=11 n_rings=2 ff_energy=558.6924 mace_energy_eV=-14897.084536 delta_E_eV_atom=0.6542241180243309 sg=P1
N  14.92236860  15.86260669  15.15764925
N  16.11723750  12.71666425  15.64094574
N  13.41748694  16.54490833  16.93492996
N  14.08294192  16.17752958  16.13026871
N  13.58162680  13.40416922  13.22977210
N  13.31995767  14.56964860  13.09625070
N  15.11858629  13.73012501  16.00966874
N  16.56818944  13.68893513  16.18494645
N  13.51617028  14.16456241  14.48592319
N  14.80094848  14.54888415  14.91076454
