10
formula=N10 topology=bicyclic-6-9 n_edges=11 n_rings=2 ff_energy=31.3840 mace_energy_eV=-14900.018628 delta_E_eV_atom=0.3608149345318452 sg=P1
N  16.17992100  15.26738735  16.76601889
N  15.01554967  14.20107175  12.48612387
N  15.30865524  14.20856288  14.65582477
N  15.19530419  14.39144359  16.83097293
N  12.62914679  15.94436952  14.47208439
N  16.20334004  15.16052344  14.51514199
N  14.74381765  13.84542084  15.77400312
N  16.64345180  15.65906183  15.59590852
N  14.69379317  13.62069426  13.44315733
N  13.39885401  16.71864135  14.63333918
