10
formula=N10 topology=branched-tree n_edges=9 n_rings=0 ff_energy=22.6563 mace_energy_eV=-14904.100407 delta_E_eV_atom=-0.047363009536638856 sg=P1
N  13.36754342  15.64266981  17.69683405
N  18.14093887  17.47496542  11.80825521
N  16.30296917  15.54505690  14.20533519
N  13.25433614  16.46275335  18.42763195
N  12.07444139  14.00503578  14.74741686
N  14.59814154  11.32023459  17.05951077
N  18.79402182  16.58637661  11.75493465
N  15.48157558  15.11206045  14.80993621
N  11.14829167  13.99223099  14.14529188
N  14.50691604  12.41157521  16.91854934
