10
formula=N10 topology=bicyclic-4-8 n_edges=11 n_rings=2 ff_energy=114.0684 mace_energy_eV=-32319.668490 delta_E_eV_atom=-1741.6041713127402 sg=P1
N  14.51038253  14.88606327  15.85910037
N  1.77109591  16.02673798  17.08106350
N  16.54296677  12.92083104  14.98689743
N  15.44920633  15.25846008  16.51623454
N  15.36058486  15.53478352  15.27626268
N  18.83458618  13.33804801  14.21539763
N  16.22539188  14.08528490  14.21568656
N  15.82039604  14.08595083  14.20115094
N  19.50216929  13.92455865  14.17110858
N  16.78433055  15.39888036  14.71366666
