10
formula=N10 topology=bicyclic-3-5-6 n_edges=12 n_rings=3 ff_energy=265.6717 mace_energy_eV=-14900.286944 delta_E_eV_atom=0.33398331459193287 sg=P1
N  15.19388504  16.48985821  15.25028292
N  14.10599627  16.05430035  15.41111976
N  14.63853909  14.27719887  14.19602382
N  13.55719793  15.22166363  14.36648126
N  15.87542121  16.15080435  14.02133967
N  16.35782262  14.15601690  17.23431837
N  13.77255665  16.06912446  13.22216998
N  14.86345339  16.50700254  13.05981943
N  15.72580481  14.71392603  14.03360392
N  15.36934478  13.68582568  17.32408253
