10
formula=N10 topology=bicyclic-5-5-6-6 n_edges=13 n_rings=4 ff_energy=578.2191 mace_energy_eV=-38605.495182 delta_E_eV_atom=-2370.1868405044556 sg=P1
N  16.37418096  16.41032029  15.93133059
N  8.69269106  16.99231253  14.21438164
N  11.57638800  15.70276273  20.88716793
N  15.87101778  15.03575826  13.44395510
N  16.31614940  15.24853934  14.76607262
N  16.32511384  14.90457659  14.94382364
N  15.63601222  14.56808644  13.33102471
N  17.33504252  13.79947842  13.65239043
N  14.76389715  13.69262724  14.33266801
N  17.92638526  14.89257812  13.05522282
