10
formula=N10 topology=ring-6-substituted n_edges=10 n_rings=1 ff_energy=27.3365 mace_energy_eV=-14898.594881 delta_E_eV_atom=0.5031895693616661 sg=P1
N  14.73729500  16.66310532  12.67160849
N  15.79683746  14.84840591  16.44099577
N  14.73123151  14.32291667  13.88951027
N  13.71872353  15.81794498  12.50933882
N  14.98856324  13.24234245  14.29248449
N  15.36208612  14.48353395  17.39528421
N  15.53056352  16.48932128  13.62713804
N  15.29647786  15.46372643  14.44469917
N  13.70508356  14.65465456  12.99820240
N  16.34755018  15.24053924  15.37288155
