10
formula=N10 topology=bicyclic-3-3-5 n_edges=12 n_rings=3 ff_energy=463.4071 mace_energy_eV=-15918.799862 delta_E_eV_atom=-101.51730849613955 sg=P1
N  15.23579997  14.85152731  13.66168398
N  16.00751412  16.63090599  13.64351265
N  7.82684726  13.50280259  28.44608606
N  15.29628625  16.68712574  13.72459997
N  15.48131723  15.05911006  12.75016422
N  15.00519060  14.02761789  12.28669317
N  14.73750808  15.41064664  13.18050312
N  16.31941623  14.73116792  12.99940247
N  15.16122565  16.16409822  14.96310249
N  15.56404360  13.93986987  13.92349965
