10
formula=N10 topology=branched-tree n_edges=9 n_rings=0 ff_energy=23.1026 mace_energy_eV=-14901.577605 delta_E_eV_atom=0.20491721980511102 sg=P1
N  18.04337780  16.42771662  16.20165488
N  13.45876047  12.32337590  13.32281332
N  12.68753402  15.66246931  16.82880401
N  17.34419180  17.22817883  15.74592611
N  14.31887065  14.33222257  15.74863168
N  16.61482973  18.00753215  15.29697128
N  15.10991771  15.21814908  14.89896107
N  13.46688341  15.07837517  16.29707830
N  15.95278223  14.72563362  14.26575637
N  14.18272285  11.55134769  13.63431090
