10
formula=N10 topology=ring-4-substituted n_edges=10 n_rings=1 ff_energy=94.3891 mace_energy_eV=-14900.429938 delta_E_eV_atom=0.3196839435297534 sg=P1
N  16.70429114  15.50901793  16.70548544
N  13.91426005  14.20937839  15.25628572
N  16.96774745  15.44230895  15.48916618
N  14.75321727  15.08323199  14.89913028
N  15.20516223  14.65108308  11.79679429
N  15.83762321  14.45695289  12.70011543
N  16.06943930  14.48055988  14.92311278
N  16.53825559  15.60104737  17.80429298
N  13.06452723  13.56095545  15.57037599
N  16.61396363  14.18915059  13.63825538
