10
formula=N10 topology=ring-3-substituted n_edges=10 n_rings=1 ff_energy=292.6159 mace_energy_eV=-14900.389754 delta_E_eV_atom=0.323702334328118 sg=P1
N  16.03748580  17.32783017  18.09227310
N  13.29224164  11.01436208  11.38496006
N  15.34958080  17.89914201  18.73969062
N  15.51195439  16.36774617  13.61346970
N  14.99470947  15.65315943  14.26840800
N  16.88716400  16.53568220  17.49460942
N  17.69115994  17.26756391  16.50262367
N  12.41329853  11.44570101  12.00334141
N  16.77858093  16.67047843  15.99915770
N  11.53455566  11.87650957  12.62212760
