10
formula=N10 topology=branched-tree n_edges=9 n_rings=0 ff_energy=27.0221 mace_energy_eV=-14903.318918 delta_E_eV_atom=0.030785923583607655 sg=P1
N  17.69301930  15.39355352  16.20875283
N  13.54725635  15.08505778  15.63606086
N  18.34335940  15.34997997  15.25239587
N  11.78202980  17.59863581  13.22708222
N  13.43780839  14.83415117  16.76588436
N  14.24350048  12.67568830  12.28425058
N  11.85311203  16.59906335  12.76368573
N  17.02962060  15.43369328  17.15825271
N  13.52353042  13.51359056  12.27829401
N  13.31623984  14.57488994  17.88704155
