10
formula=N10 topology=ring-4-substituted n_edges=10 n_rings=1 ff_energy=112.6602 mace_energy_eV=-14900.798920 delta_E_eV_atom=0.28278572772023836 sg=P1
N  13.83048482  16.82434340  16.47139244
N  16.14524026  14.54696623  15.40782297
N  14.14907617  17.44120769  17.39814598
N  14.57752597  14.12038233  12.57801717
N  14.94799810  14.58615699  13.61523276
N  15.82629086  13.82676366  14.41257704
N  16.46852231  15.10387699  16.31159708
N  15.32075735  12.53293183  12.32625990
N  14.46210100  18.06329483  18.32267768
N  15.08489731  11.80441618  13.13066479
