10
formula=N10 topology=branched-tree n_edges=9 n_rings=0 ff_energy=28.3931 mace_energy_eV=-14900.794589 delta_E_eV_atom=0.28321883184025864 sg=P1
N  12.62432873  17.35832110  15.87313315
N  14.41624546  12.65647730  13.79233436
N  13.40773259  16.52241332  16.10776489
N  16.82419571  15.05761992  14.21685295
N  15.79472985  15.49585530  13.91137440
N  12.47843952  13.20917021  14.93165127
N  17.84968718  14.63110782  14.53348078
N  14.14391995  15.61806684  16.34176687
N  13.44567611  12.92361530  14.36130283
N  14.78172830  14.67995351  16.62568859
