10
formula=N10 topology=bicyclic-3-4-6-7 n_edges=13 n_rings=4 ff_energy=418.4427 mace_energy_eV=-17520.377747 delta_E_eV_atom=-261.6750969973573 sg=P1
N  14.11107944  13.69477717  11.10110142
N  13.77240647  15.14191592  13.22417510
N  17.89324124  14.76530720  12.06081535
N  12.68691283  14.04677310  15.73064256
N  12.81772798  14.20710043  15.32961754
N  12.28872105  13.94500107  12.76053815
N  24.14124829  23.30162859  17.98647848
N  13.39868417  12.93731609  15.68145900
N  13.93228048  14.97588190  16.57000898
N  14.89255428  14.45490385  15.94621630
