10
formula=N10 topology=ring-4-substituted n_edges=10 n_rings=1 ff_energy=109.4011 mace_energy_eV=-14900.787514 delta_E_eV_atom=0.283926272738654 sg=P1
N  14.68986138  14.59397286  15.36558502
N  12.77191265  13.84286799  12.21284688
N  15.35773232  14.82555308  16.22262106
N  17.42844758  17.40257191  16.43812557
N  12.05991868  14.86936703  13.45563390
N  18.10439203  17.15198932  15.53123082
N  12.80295304  14.96572765  14.38830551
N  16.75197502  17.65634199  17.34315571
N  14.02500015  14.26665815  14.33960113
N  13.01484768  12.82105184  12.57746047
