10
formula=N10 topology=bicyclic-3-4-7 n_edges=12 n_rings=3 ff_energy=334.4819 mace_energy_eV=-14897.497496 delta_E_eV_atom=0.6129281022813302 sg=P1
N  16.16560171  16.17451557  16.79825517
N  16.18905348  13.92292441  13.77902834
N  14.88316476  16.06213969  16.10245125
N  13.56468902  14.08611172  13.73051295
N  16.07285049  15.02430519  14.31141181
N  14.17573749  12.94135401  14.30667796
N  16.01893981  17.08888400  16.01083821
N  14.92338291  15.11458113  15.14514285
N  15.39852169  12.85273051  14.31944014
N  13.81585600  15.17830096  14.22948303
