10
formula=N10 topology=bicyclic-4-7 n_edges=11 n_rings=2 ff_energy=122.3867 mace_energy_eV=-34349.141401 delta_E_eV_atom=-1944.5514624018397 sg=P1
N  18.04068549  12.79977545  11.66466904
N  18.06141206  11.57750353  12.16331323
N  19.52536671  12.06393768  12.53464629
N  16.01977513  12.24683291  12.31352829
N  18.62118247  12.80357513  15.91466100
N  20.78144828  11.93234177  14.22009812
N  20.63845779  18.26662977  12.25542969
N  18.89985485  10.30014192  13.48386378
N  22.08091068  15.26388171  13.15390076
N  17.93196101  11.66979619  12.52894502
