10
formula=N10 topology=bicyclic-3-3 n_edges=11 n_rings=2 ff_energy=441.6898 mace_energy_eV=-16086.884931 delta_E_eV_atom=-118.32581541732134 sg=P1
N  17.13724773  13.32757967  14.55092743
N  13.61083991  14.18040576  16.91545916
N  16.12278049  13.83243367  18.38809253
N  16.50217071  13.91204347  16.37942761
N  16.02785219  13.87402115  16.48373308
N  11.93134650  17.94945419  13.99119462
N  10.38313686  18.73728411  13.90036532
N  15.89711770  14.40903780  14.78201615
N  17.13917954  14.55273065  14.60629369
N  15.88628207  13.62486500  14.73114197
