10
formula=N10 topology=bicyclic-3-5 n_edges=11 n_rings=2 ff_energy=249.7918 mace_energy_eV=-14897.693920 delta_E_eV_atom=0.5932857034447352 sg=P1
N  15.62582649  12.88099787  14.46029516
N  14.91295007  16.44397317  15.00162648
N  15.04935359  15.20494234  15.39982719
N  15.83164372  13.75679596  16.68064357
N  15.86445696  12.66493468  13.39975413
N  16.12023042  14.88088646  16.16188306
N  15.41296713  12.64903655  15.78868712
N  14.37141658  13.50681808  16.40300826
N  14.82530852  17.44883205  14.55779024
N  13.94221153  14.50802893  15.74777255
