10
formula=N10 topology=bicyclic-3-4 n_edges=11 n_rings=2 ff_energy=304.1306 mace_energy_eV=-14899.869799 delta_E_eV_atom=0.37569781360889465 sg=P1
N  14.19122456  15.03748308  14.34534124
N  14.07178804  15.97066217  13.54755661
N  14.85645764  15.88766179  12.41231882
N  17.22388552  14.84705482  17.30543703
N  14.00202833  14.40141815  16.56102411
N  15.59714254  14.86025826  12.33989984
N  13.37739628  15.15209829  15.49789827
N  18.17775676  14.56145528  17.77791528
N  16.26728415  13.98393450  12.22228148
N  13.09617572  13.81966755  15.98063448
