10
formula=N10 topology=bicyclic-5-6 n_edges=11 n_rings=2 ff_energy=91.6975 mace_energy_eV=-14902.570371 delta_E_eV_atom=0.10564058372665386 sg=P1
N  17.14108299  13.97841635  13.29134972
N  15.08835025  13.86594998  13.90215520
N  12.25118680  13.40180578  15.54579137
N  15.23298157  15.16900692  15.85884262
N  15.94490154  13.46738866  13.01519853
N  15.79867224  14.61958470  14.70285433
N  15.83899099  16.24497518  16.12416088
N  17.05426912  14.70190153  14.36601738
N  16.30372291  17.19683736  16.45508943
N  12.89568207  12.51552020  15.63201479
