10
formula=N10 topology=bicyclic-3-6 n_edges=11 n_rings=2 ff_energy=307.3154 mace_energy_eV=-14901.520917 delta_E_eV_atom=0.21058597026535608 sg=P1
N  16.92177993  13.81807306  16.45578013
N  14.89695600  14.65212800  13.77906645
N  15.17097652  13.31931645  11.84916127
N  14.98721610  13.94245011  12.75562799
N  13.77134982  17.60961303  17.36479905
N  14.02510460  16.89539029  16.54699258
N  13.26573143  15.60560954  14.97623900
N  15.93253470  13.36558385  16.62505741
N  14.42145716  16.11704250  15.65462216
N  13.50379268  14.87297837  14.03780059
