10
formula=N10 topology=ring-7-substituted n_edges=10 n_rings=1 ff_energy=32.2052 mace_energy_eV=-14903.371344 delta_E_eV_atom=0.025543263165673125 sg=P1
N  17.61643091  18.15621538  16.85517944
N  14.31377701  16.57881072  16.16693217
N  12.92122081  13.81419904  12.58137401
N  11.95372005  13.46215022  12.05289967
N  17.77019628  17.09760144  16.58258151
N  16.62807182  12.93830566  15.11657241
N  11.99666961  16.64684472  16.09789275
N  13.88746939  14.16617336  13.12117273
N  16.87867641  14.00047634  15.28300208
N  13.15387405  16.62112838  16.13645913
