10
formula=N10 topology=branched-tree n_edges=9 n_rings=0 ff_energy=22.6108 mace_energy_eV=-14900.710083 delta_E_eV_atom=0.29166943059431105 sg=P1
N  13.96562752  14.77402682  15.56320316
N  12.94351734  13.99184524  17.28284326
N  14.75452840  15.64282934  15.21598334
N  13.74036069  14.89377599  16.93153659
N  15.76392841  16.24054787  13.25856521
N  17.90217157  13.73353467  13.04807434
N  17.06069502  13.52031054  12.28343529
N  16.19945481  13.31824883  11.53591374
N  12.24658883  13.22187556  17.67574706
N  15.00155773  15.50634073  13.68512785
