10
formula=N10 topology=bicyclic-3-3-4-5 n_edges=13 n_rings=4 ff_energy=587.1717 mace_energy_eV=-14895.805209 delta_E_eV_atom=0.7821568297611066 sg=P1
N  16.60165518  14.01994121  16.34399942
N  16.02538787  15.04372113  16.94935815
N  13.19461008  14.09766193  13.93248418
N  15.10903347  14.22408246  16.36019643
N  16.79899118  16.05656325  15.08085042
N  16.43065799  16.37136935  16.17388839
N  13.94045610  14.40004263  13.03974196
N  14.52002825  13.68076208  14.16599016
N  15.07433006  14.62371685  14.98337426
N  16.55974141  14.59241145  14.78791956
