10
formula=N10 topology=bicyclic-3-6 n_edges=11 n_rings=2 ff_energy=277.5793 mace_energy_eV=-14898.660509 delta_E_eV_atom=0.49662678953995965 sg=P1
N  16.42326696  14.64913113  13.28385433
N  13.67912652  15.40374873  16.57986418
N  13.12925680  15.25679540  15.19314687
N  13.56947240  14.23977859  15.63434711
N  15.25619818  16.71483062  13.30238366
N  16.34534057  13.84187534  14.29536279
N  16.47472092  12.97045181  14.96998967
N  15.71185089  15.71714560  13.47919512
N  15.87956534  16.32035452  16.62172807
N  14.86518746  15.88352525  16.53703243
