10
formula=N10 topology=bicyclic-4-6 n_edges=11 n_rings=2 ff_energy=114.9297 mace_energy_eV=-14900.036828 delta_E_eV_atom=0.3589948602568711 sg=P1
N  15.02378471  15.17931332  16.55783461
N  13.02999098  15.52855795  12.89328205
N  16.28013848  16.23954560  14.48649160
N  14.47752936  16.10808086  15.89293963
N  15.10908502  16.70147093  14.88948912
N  16.85548367  15.30084696  15.12179602
N  16.32912429  13.35791942  17.77973004
N  16.22905834  14.83271411  16.16363253
N  16.94850358  13.76037397  16.88000111
N  12.49642616  16.48736433  12.98883537
