10
formula=N10 topology=bicyclic-4-5 n_edges=11 n_rings=2 ff_energy=173.1520 mace_energy_eV=-14902.069403 delta_E_eV_atom=0.1557373656874006 sg=P1
N  14.43192641  14.46189061  13.55787020
N  15.11159811  15.54206886  13.90852228
N  12.43812937  15.95866848  15.38825090
N  15.00102129  14.25674192  15.61896092
N  11.87835730  15.22699044  14.80207705
N  17.97698492  16.11058877  15.86555996
N  14.36304787  13.66035473  14.62466940
N  17.95459140  15.42856880  16.79838143
N  18.07725644  16.80600801  14.94780078
N  15.44961704  15.42376211  15.18300908
