9
formula=N9 topology=bicyclic-3-4 n_edges=10 n_rings=2 ff_energy=331.6013 mace_energy_eV=-13411.744856 delta_E_eV_atom=0.16880479736528287 sg=P1
N  13.53555522  14.54293232  13.36456670
N  13.98945997  14.69554015  14.55187867
N  13.12852284  15.40862123  17.47404979
N  15.51862685  15.32681804  13.09410006
N  14.47512320  14.92855265  12.47118564
N  15.20199470  15.17899736  14.37060983
N  13.47701886  14.38189895  17.65373098
N  17.10404069  15.88204713  15.14146708
N  16.06970205  15.49098410  15.49467343
