9
formula=N9 topology=bicyclic-3-3 n_edges=10 n_rings=2 ff_energy=474.4360 mace_energy_eV=-13413.244708 delta_E_eV_atom=0.0021545888546370406 sg=P1
N  15.10935670  15.66461857  14.22692372
N  14.30477239  14.94745026  13.98970861
N  17.78743790  19.13904494  15.34089943
N  16.28378655  13.12157866  16.47210158
N  17.07099781  18.43201881  14.88499981
N  10.98647833  14.19149653  10.84237335
N  16.77267278  12.22912146  18.55457034
N  11.72444501  14.60737912  11.55299949
N  16.52871588  12.67366875  17.51371577
