9
formula=N9 topology=branched-tree n_edges=8 n_rings=0 ff_energy=16.8177 mace_energy_eV=-13410.822161 delta_E_eV_atom=0.271326534389118 sg=P1
N  16.14563920  15.20973340  15.32023099
N  15.21127820  14.17678052  15.50634494
N  12.55055006  16.93294105  13.44010506
N  14.72698638  14.25685809  16.66680378
N  16.70457774  15.31028868  14.27166058
N  14.20800472  14.19653658  17.64887247
N  16.13790195  14.07431936  13.19606207
N  16.76439155  13.98207769  12.26035692
N  13.47419242  16.39716760  13.72272130
