9
formula=N9 topology=bicyclic-3-4 n_edges=10 n_rings=2 ff_energy=348.7711 mace_energy_eV=-13413.224218 delta_E_eV_atom=0.004431262871094077 sg=P1
N  11.39457301  16.68827349  16.42845605
N  18.25797122  16.60214597  17.27659136
N  15.81289391  12.47697335  12.28891076
N  15.59551727  16.45296775  14.79381288
N  16.01181855  11.60765122  11.54966966
N  14.49946486  16.34546948  14.72433448
N  10.49634500  16.50371445  17.04485652
N  15.60984643  13.34558015  13.02967657
N  19.08541705  16.07943049  17.78966955
