9
formula=N9 topology=bicyclic-3-5 n_edges=10 n_rings=2 ff_energy=246.5773 mace_energy_eV=-13409.712581 delta_E_eV_atom=0.39461312166758944 sg=P1
N  15.06117627  16.48825048  13.56456178
N  15.92740663  14.44551081  13.82130005
N  12.73115410  14.64576224  16.23374160
N  15.19719536  15.45835785  14.40079753
N  15.61644906  16.12553588  12.48801985
N  16.15217633  14.91817722  12.55992231
N  13.72858035  15.02331197  15.92650923
N  16.23141685  13.44218640  14.39868149
N  14.91188897  15.46519153  15.74824980
