9
formula=N9 topology=bicyclic-3-7 n_edges=10 n_rings=2 ff_energy=266.5275 mace_energy_eV=-13410.782969 delta_E_eV_atom=0.27568112773587927 sg=P1
N  16.75441985  14.50899663  17.50134301
N  15.27773817  13.63853704  14.67302161
N  15.77827527  17.29212931  15.34929387
N  13.33661599  14.29380133  14.00319749
N  15.34606414  17.68699048  16.28301782
N  15.92967176  14.36140924  16.72067315
N  14.15446626  14.39938792  14.97586048
N  16.19004061  13.60040598  15.49027411
N  12.52375371  14.31387005  13.24796308
