9
formula=N9 topology=branched-tree n_edges=8 n_rings=0 ff_energy=21.7201 mace_energy_eV=-13411.568823 delta_E_eV_atom=0.1883640567737075 sg=P1
N  14.93865311  14.40451628  15.85619505
N  15.03355030  13.15453314  15.70773728
N  16.29968468  16.13409758  15.46220496
N  14.13997302  15.98089222  12.98058206
N  13.04025747  17.02835087  16.33681353
N  14.94085468  12.05186686  15.64423511
N  13.21137531  16.74678908  17.38869704
N  16.15036011  14.98133164  15.39792559
N  13.50852526  16.33191829  12.14379927
