9
formula=N9 topology=bicyclic-3-5-6 n_edges=11 n_rings=3 ff_energy=895.7047 mace_energy_eV=-13415.388680 delta_E_eV_atom=-0.23606454573814517 sg=P1
N  13.62423765  15.71638525  13.91403636
N  15.13333329  15.43484835  15.28609155
N  14.50176055  14.98716090  14.31330970
N  15.46560600  13.35874286  15.23115038
N  16.18900026  14.32811920  15.60517694
N  15.16416970  13.60147745  14.02573558
N  13.80609205  16.67921817  14.78059004
N  16.32284961  13.93924709  14.40780262
N  14.75969579  16.52116519  15.66191728
