9
formula=N9 topology=bicyclic-3-5-6 n_edges=11 n_rings=3 ff_energy=325.1163 mace_energy_eV=-13411.713474 delta_E_eV_atom=0.1722917098588823 sg=P1
N  16.06022864  16.14826578  14.80157451
N  16.15551988  15.26335634  13.88534623
N  13.13132779  16.88436461  16.33486516
N  14.78648117  16.12372675  15.14308930
N  14.93321244  14.70814623  13.66746540
N  15.75337888  11.72659295  14.15157818
N  16.22689090  11.67038264  13.16032718
N  14.27158118  17.01920216  16.16468734
N  14.07936229  15.23843140  14.45429570
