9
formula=N9 topology=bicyclic-4-4 n_edges=10 n_rings=2 ff_energy=175.4576 mace_energy_eV=-13408.613310 delta_E_eV_atom=0.5167544009595986 sg=P1
N  13.90624691  15.34168205  16.02286244
N  16.00976898  15.12838721  14.96751239
N  14.52647002  13.48360577  15.96194279
N  13.65102520  14.06735715  16.62519409
N  12.84878203  16.08270843  15.51768670
N  16.46080634  14.93677337  13.80446058
N  11.85537407  16.19939946  16.09652004
N  14.72603776  14.60265569  15.07186370
N  16.97055850  14.84206548  12.81967035
