9
formula=N9 topology=bicyclic-3-3 n_edges=10 n_rings=2 ff_energy=525.9749 mace_energy_eV=-13407.053195 delta_E_eV_atom=0.6901004707249285 sg=P1
N  15.29344859  17.05327625  15.70105657
N  16.29722048  16.38533623  13.69735033
N  13.92503355  12.67415362  13.79736571
N  15.23166048  16.96562649  14.25197730
N  15.20106203  15.60015388  13.60084276
N  14.53266338  13.56937303  14.07039056
N  14.08290865  16.56242368  16.33881952
N  14.14437671  17.76208129  16.17411465
N  15.23502492  14.50951168  14.47795024
