9
formula=N9 topology=bicyclic-5-6 n_edges=10 n_rings=2 ff_energy=478.1024 mace_energy_eV=-13411.263620 delta_E_eV_atom=0.22227544416000455 sg=P1
N  14.12830998  13.69178594  16.72531907
N  15.17400576  13.52523318  13.29665884
N  14.12095290  13.84766979  13.15975609
N  14.38386660  14.86685513  17.10422150
N  15.59299393  17.08157088  13.42350730
N  16.65608344  16.83340620  13.23679994
N  15.51944373  15.26946646  16.29722858
N  13.82924293  12.65332392  16.47023397
N  15.97886134  16.32171522  16.52244747
