9
formula=N9 topology=bicyclic-3-3-4 n_edges=11 n_rings=3 ff_energy=576.1488 mace_energy_eV=-13411.006345 delta_E_eV_atom=0.25086158666385927 sg=P1
N  16.11030834  17.25205282  15.48597340
N  14.62418173  15.70983184  15.56130638
N  13.93887134  13.35026171  14.96929604
N  16.65045193  16.27642891  14.88490776
N  15.71563447  15.31361252  14.93299485
N  15.97499561  14.14327741  14.38915904
N  15.10379912  13.18473596  14.40917885
N  14.86563897  16.91538987  15.90531234
N  12.91102906  13.25123566  15.37492053
