9
formula=N9 topology=ring-4-substituted n_edges=9 n_rings=1 ff_energy=118.7938 mace_energy_eV=-13409.403063 delta_E_eV_atom=0.4290040341563781 sg=P1
N  15.94076355  15.20965030  13.31640689
N  16.79954783  14.31406906  11.93681894
N  15.37542477  15.81101263  14.22028890
N  14.77818567  15.06106827  18.31549159
N  14.85497345  16.35086816  15.05708157
N  17.29928409  14.88743562  13.00232018
N  12.73195386  14.69128146  17.29499907
N  13.75401485  14.87870083  17.80662162
N  15.52494808  14.55430562  12.11365456
