9
formula=N9 topology=bicyclic-3-3-5 n_edges=11 n_rings=3 ff_energy=467.5502 mace_energy_eV=-13732.651289 delta_E_eV_atom=-35.48746552067337 sg=P1
N  13.93349989  17.78580425  14.39769571
N  13.42647982  18.78412076  13.97078486
N  12.80406203  18.02508088  13.46676450
N  27.87379773  0.17253497  13.80015293
N  13.06929649  15.37815734  16.80515243
N  13.10582184  16.65254585  15.08738646
N  12.98906835  14.59775422  17.81732651
N  13.11407198  17.61617492  13.16433670
N  14.21063827  17.72569608  13.24543097
