9
formula=N9 topology=bicyclic-3-4 n_edges=10 n_rings=2 ff_energy=374.5401 mace_energy_eV=-13410.612512 delta_E_eV_atom=0.2946208418557035 sg=P1
N  15.87567839  14.39692660  15.26369889
N  16.96103473  17.34248128  16.21784292
N  12.84612867  16.57772102  13.47874420
N  15.87941969  15.60769243  15.15571563
N  14.96791109  12.61261777  14.47182366
N  14.96331015  13.86134395  14.34737295
N  16.92900929  16.20762792  16.23857385
N  14.90221035  11.50490137  14.50822115
N  12.13743678  15.75433485  13.29906802
