9
formula=N9 topology=ring-4-substituted n_edges=9 n_rings=1 ff_energy=124.3657 mace_energy_eV=-13409.459512 delta_E_eV_atom=0.4227319285141675 sg=P1
N  13.86427482  15.19557472  14.74837803
N  16.07940852  13.69863569  16.97829346
N  16.92753652  15.66847129  16.12026179
N  13.66289897  15.78574756  15.80730935
N  14.89915708  14.39576331  14.23430126
N  13.17732619  15.10413436  13.49699656
N  16.48067043  14.68368589  16.52730296
N  14.19147764  14.36869575  13.12608665
N  13.49094340  16.31506343  16.78237454
