9
formula=N9 topology=ring-5-substituted n_edges=9 n_rings=1 ff_energy=41.2916 mace_energy_eV=-13410.868387 delta_E_eV_atom=0.2661902949978412 sg=P1
N  13.80046196  15.75667111  16.59751883
N  13.95375633  14.59724616  17.20320074
N  14.74501015  15.97437412  15.75992823
N  15.00599065  13.99149263  16.79544813
N  13.34546334  15.77478702  12.45526314
N  15.57840090  14.84268317  15.84658567
N  16.58584091  14.65627521  15.22422175
N  14.24101108  13.93670963  13.53928595
N  13.78277581  14.84823971  12.98822665
