9
formula=N9 topology=ring-4-substituted n_edges=9 n_rings=1 ff_energy=94.6643 mace_energy_eV=-13410.664789 delta_E_eV_atom=0.28881231119953554 sg=P1
N  15.65796552  13.16021468  17.64457913
N  17.09254004  15.88956267  14.21779139
N  12.95265161  15.93323888  15.02570627
N  15.00918624  16.01158403  14.54321828
N  14.07689830  15.42268655  15.27422023
N  16.13323777  15.39651237  14.86759721
N  15.47935700  12.44646204  16.82769730
N  17.93319938  16.33171878  13.63667091
N  11.96180991  16.38746657  14.79955498
