9
formula=N9 topology=ring-4-substituted n_edges=9 n_rings=1 ff_energy=93.6783 mace_energy_eV=-13410.559886 delta_E_eV_atom=0.3004681427057676 sg=P1
N  13.76608314  14.10416782  17.93643209
N  13.12032415  15.47520822  12.06772186
N  14.54647828  13.83300407  17.15262637
N  15.42323566  12.58721120  15.83970868
N  15.90871799  16.26140829  13.90999298
N  16.79711316  16.39679291  14.54897816
N  15.55153026  13.96493385  16.35905864
N  14.48278326  12.19067723  16.47190006
N  12.29738740  15.13639581  11.41355765
