9
formula=N9 topology=bicyclic-4-4-4 n_edges=11 n_rings=3 ff_energy=232.4543 mace_energy_eV=-13407.688349 delta_E_eV_atom=0.6195278591148963 sg=P1
N  16.47003523  14.63257866  13.87450278
N  15.92692431  15.97463267  14.22262837
N  14.75024396  14.01456130  12.95398964
N  15.27342977  13.75949729  14.04304623
N  15.14170700  14.76331077  17.08452850
N  15.77265658  14.95339098  12.45003504
N  14.23144715  15.08341485  16.45848801
N  13.29142145  15.40854649  15.87945489
N  15.39685703  16.20771176  13.13165056
