9
formula=N9 topology=ring-3-substituted n_edges=9 n_rings=1 ff_energy=254.7853 mace_energy_eV=-13408.838688 delta_E_eV_atom=0.49171231934747084 sg=P1
N  14.57752298  15.63213327  14.66104081
N  17.84623070  14.30591069  14.87380214
N  16.32878415  14.32269628  14.91852092
N  11.08566095  15.92367506  15.12739073
N  15.96823066  15.46633585  14.65793828
N  11.47342669  16.17992744  16.12437028
N  14.30615471  16.75428799  13.76943168
N  18.36354871  13.29042175  14.98283071
N  14.35202828  17.04759907  14.95181269
