9
formula=N9 topology=ring-5-substituted n_edges=9 n_rings=1 ff_energy=44.4124 mace_energy_eV=-13410.876011 delta_E_eV_atom=0.2653430965451662 sg=P1
N  13.80893654  16.29207996  14.60053716
N  14.74309204  13.29718836  14.43132828
N  12.81903571  13.35992127  15.71298232
N  14.93405495  16.09338090  14.97702732
N  16.09306408  16.15934971  14.21034036
N  17.04613903  15.85929929  15.00993812
N  13.78295018  13.30337388  15.07699009
N  16.59195043  15.60867907  16.22421193
N  15.31928245  15.73172174  16.27922546
