9
formula=N9 topology=bicyclic-4-4 n_edges=10 n_rings=2 ff_energy=166.9938 mace_energy_eV=-13409.329700 delta_E_eV_atom=0.43715543524422174 sg=P1
N  16.27390420  14.94722463  13.78254232
N  15.84621321  15.16056182  15.08230610
N  14.40905469  14.07879890  16.35899380
N  13.56521315  16.45432034  13.08558497
N  16.61432900  16.16691959  13.83973080
N  14.22703355  13.41317730  17.22933464
N  16.13624007  16.51047516  14.96068071
N  14.48880260  14.83615471  15.34648461
N  12.47851742  16.36363664  12.93804123
