9
formula=N9 topology=ring-3-substituted n_edges=9 n_rings=1 ff_energy=260.5083 mace_energy_eV=-13413.350177 delta_E_eV_atom=-0.009564210154394459 sg=P1
N  11.69636633  12.95157958  12.13395035
N  17.12176449  13.98516325  12.58033753
N  16.54707831  15.28911337  15.98354412
N  13.66587208  16.46844020  14.06290562
N  13.75489243  17.37520944  14.68705834
N  16.02114278  13.94587474  12.66189163
N  17.09053969  15.18889717  17.00655578
N  17.63183292  15.08954228  18.02375475
N  12.56090188  13.55821980  12.45541449
