9
formula=N9 topology=ring-5-substituted n_edges=9 n_rings=1 ff_energy=37.6919 mace_energy_eV=-13410.524160 delta_E_eV_atom=0.3044376785858276 sg=P1
N  13.07872292  13.85326992  14.47750895
N  15.98624831  15.79685763  15.02959481
N  17.87868553  16.10120397  15.74141338
N  14.64615651  15.38714700  14.96390883
N  16.60367277  16.39054335  14.03287065
N  17.79135866  16.58838631  14.48582312
N  16.74622895  15.59522476  16.08263718
N  14.58852967  14.24869810  14.52579822
N  12.87480140  12.80282328  14.08390039
