9
formula=N9 topology=bicyclic-3-4-5-7 n_edges=12 n_rings=4 ff_energy=335.0353 mace_energy_eV=-469695.310022 delta_E_eV_atom=-50698.00510248297 sg=P1
N  15.82361817  15.32368404  15.10663088
N  16.19207233  16.62498644  14.23433313
N  11.37337780  12.96195438  18.29461224
N  16.04150866  16.98315275  13.32839691
N  14.48356207  11.33155802  17.71509006
N  15.61217119  15.43666833  15.16731414
N  15.05339770  14.09172025  14.51348665
N  14.71114649  14.18926791  14.68791934
N  13.71386354  17.68231653  13.67074993
