9
formula=N9 topology=bicyclic-3-5 n_edges=10 n_rings=2 ff_energy=285.7776 mace_energy_eV=-13411.187784 delta_E_eV_atom=0.23070170283244806 sg=P1
N  16.66649533  14.00496547  14.06071792
N  16.86103601  13.77140824  16.19147328
N  12.67035522  15.80319687  14.21682093
N  14.56604528  14.95672018  14.06404082
N  17.44646109  13.59052059  14.97890169
N  15.59030978  14.44573067  14.71927695
N  13.63403024  15.31654613  14.89022528
N  15.71272205  14.30035780  16.03501346
N  11.83106822  16.22131930  13.62430320
