9
formula=N9 topology=ring-3-substituted n_edges=9 n_rings=1 ff_energy=286.6452 mace_energy_eV=-13410.644618 delta_E_eV_atom=0.2910534888271741 sg=P1
N  14.82839341  15.37200789  14.56362084
N  13.00128882  13.21163422  12.90627108
N  16.47481518  17.55808218  16.11944577
N  14.73734014  12.74145030  17.36409807
N  15.92669673  15.36538571  15.42875906
N  16.17452919  16.55015218  15.76384577
N  15.60653967  12.16467301  17.01246800
N  14.57504906  14.22592243  14.23833644
N  13.29582505  14.24935406  13.26343734
