9
formula=N9 topology=ring-8-substituted n_edges=9 n_rings=1 ff_energy=20.7956 mace_energy_eV=-13411.496359 delta_E_eV_atom=0.19641562507740673 sg=P1
N  15.53229190  14.29598375  17.28871527
N  14.20460957  15.04185424  12.79017086
N  14.20738297  12.94998270  11.68530235
N  16.01365163  18.91800722  17.43746980
N  15.34531448  15.99496115  14.45695370
N  14.54847932  13.93111659  16.94643635
N  15.19862627  15.01784531  13.83907071
N  15.82495496  17.99536591  16.86022821
N  14.25671756  13.90825551  12.24227372
