9
formula=N9 topology=bicyclic-3-4-5 n_edges=11 n_rings=3 ff_energy=402.6801 mace_energy_eV=-14196.082515 delta_E_eV_atom=-86.97982400890078 sg=P1
N  16.74953077  13.88329300  14.66129875
N  17.49105355  15.60629026  12.52711519
N  15.28984273  12.60791373  15.70806987
N  16.69391215  14.36164534  15.93969338
N  14.95565753  13.64876673  15.04614102
N  16.13268162  13.06261624  15.37636461
N  15.79144025  13.73007203  16.00690502
N  17.02669064  13.27837699  15.78657405
N  7.60106162  25.02205972  19.51175750
