9
formula=N9 topology=ring-4-substituted n_edges=9 n_rings=1 ff_energy=102.7947 mace_energy_eV=-13408.623390 delta_E_eV_atom=0.5156343252217539 sg=P1
N  14.61454525  13.75011852  15.84536065
N  13.84383770  14.41196350  13.65576818
N  14.56932225  17.16691118  11.77175668
N  14.88508335  12.56178848  16.14250874
N  14.65059616  16.31400061  12.48103116
N  15.08265141  11.54536965  16.54536048
N  14.86846787  13.97931222  14.44281385
N  15.75184384  14.95481051  14.08989993
N  14.76143416  15.31162989  13.24727442
