9
formula=N9 topology=branched-tree n_edges=8 n_rings=0 ff_energy=20.6542 mace_energy_eV=-13413.302178 delta_E_eV_atom=-0.00423101726164532 sg=P1
N  19.33558902  13.69449561  13.90135763
N  13.56650034  16.78048869  16.68985398
N  12.20879759  18.50703019  17.43017723
N  15.34619776  13.55926361  11.96830374
N  14.99452188  13.57022934  15.57279428
N  18.23724605  13.63865146  14.00437754
N  12.88894329  17.64602435  17.06004119
N  14.65225092  13.35166353  16.59988082
N  14.45643361  13.41340965  11.33054433
