9
formula=N9 topology=bicyclic-3-4 n_edges=10 n_rings=2 ff_energy=305.3058 mace_energy_eV=-13409.941760 delta_E_eV_atom=0.3691488339677562 sg=P1
N  15.20055675  14.24943137  14.04878730
N  14.28621879  14.93817520  14.81379001
N  14.46303591  16.14119417  15.01804571
N  14.55630868  18.30831573  16.46328072
N  14.59018092  18.62911316  15.40124639
N  14.80750824  13.02287890  14.02232248
N  14.62281969  11.93568060  13.90326009
N  15.86440517  17.80315643  14.44021921
N  15.63141640  16.64963695  14.38369016
