9
formula=N9 topology=bicyclic-3-4 n_edges=10 n_rings=2 ff_energy=373.5985 mace_energy_eV=-13407.159028 delta_E_eV_atom=0.6783413104660667 sg=P1
N  14.76361772  14.73525358  15.75210520
N  14.93988781  14.77508924  13.25501461
N  13.61776897  16.02195993  14.76118224
N  16.37106719  14.62332400  12.93491925
N  15.86437012  13.60959339  13.37241069
N  15.83094573  14.84081717  16.50588709
N  16.67686909  14.74950404  17.21719550
N  13.66272963  15.69496208  15.96406410
N  14.81243496  15.40650321  14.44063587
