9
formula=N9 topology=ring-3-substituted n_edges=9 n_rings=1 ff_energy=254.7911 mace_energy_eV=-13410.217643 delta_E_eV_atom=0.3384951931343494 sg=P1
N  15.33672138  15.70824380  14.45138691
N  15.61463625  16.34472336  13.31265679
N  14.25974385  14.06841458  15.21256013
N  17.05163793  18.20055167  13.62635077
N  14.56603186  14.73204506  14.16627481
N  13.46425396  13.06911257  14.83123613
N  12.75573841  11.70509963  16.63235746
N  16.37665652  17.32253467  13.51341194
N  13.10968263  12.36663105  15.81011832
