9
formula=N9 topology=ring-3-substituted n_edges=9 n_rings=1 ff_energy=232.4792 mace_energy_eV=-13410.803400 delta_E_eV_atom=0.2734110737208084 sg=P1
N  16.88872156  16.54714630  14.94136702
N  13.97081603  14.37187067  14.81696422
N  14.68886672  18.73350276  14.66874439
N  13.89351247  17.99417017  14.48419624
N  15.35952435  15.45149350  16.21608469
N  12.06317372  12.95574439  14.84670927
N  14.36986023  14.73965240  16.09398659
N  16.02884615  15.78974778  14.94892688
N  12.94850421  13.62163835  14.92141208
