9
formula=N9 topology=bicyclic-5-5 n_edges=10 n_rings=2 ff_energy=181.4093 mace_energy_eV=-13405.666044 delta_E_eV_atom=0.8442283580343428 sg=P1
N  15.91341008  16.34718712  15.87077659
N  15.02794777  12.68983384  14.64168014
N  16.78087835  17.03753879  15.84959646
N  13.74378821  13.12520863  14.12571819
N  15.50414467  13.89658208  14.04737121
N  14.43190203  13.90066270  13.09285594
N  14.83985696  15.69329075  16.10305547
N  14.56296857  14.79217141  15.06830712
N  13.47990998  14.16314378  15.08406612
