9
formula=N9 topology=ring-3-substituted n_edges=9 n_rings=1 ff_energy=291.7345 mace_energy_eV=-13410.398363 delta_E_eV_atom=0.3184151126497454 sg=P1
N  13.32388066  13.34289626  17.36575947
N  14.48976224  15.73672832  13.95192859
N  15.75711208  15.47936297  13.85732696
N  13.67586233  13.83546714  16.44115038
N  15.99929794  14.37188825  12.86600025
N  16.96183645  15.29478830  17.03432948
N  16.01538653  14.01398032  14.00913145
N  17.98401994  15.21681099  16.62959010
N  13.48837696  16.17262137  14.11911539
