9
formula=N9 topology=bicyclic-3-5 n_edges=10 n_rings=2 ff_energy=245.6502 mace_energy_eV=-13412.059819 delta_E_eV_atom=0.13380893158978324 sg=P1
N  13.16095195  16.17617033  15.59483825
N  14.43612682  15.47737094  13.28939517
N  15.77410908  13.81054100  13.22582972
N  13.75448392  14.38840992  13.62519806
N  15.67714792  15.12387020  13.04515557
N  16.11560961  14.55181207  16.32176401
N  14.57671416  13.36422788  13.58727286
N  15.97910365  14.95031702  17.33635221
N  12.25201089  16.61058387  15.15931208
