9
formula=N9 topology=bicyclic-3-5-5-5 n_edges=12 n_rings=4 ff_energy=319.3926 mace_energy_eV=-13413.223053 delta_E_eV_atom=0.004560731854553524 sg=P1
N  15.71667492  15.68933678  18.42778672
N  15.61385219  14.35821686  12.25935381
N  11.69639794  14.83313648  16.12916832
N  14.46327848  14.21920538  12.30459914
N  18.63367522  15.87455805  13.58651405
N  18.03934323  15.89803451  14.51701811
N  16.14808000  15.84599512  17.42375834
N  12.66764233  14.96214591  16.64836280
N  13.31439268  14.09088355  12.37312995
