9
formula=N9 topology=bicyclic-3-3-4 n_edges=11 n_rings=3 ff_energy=575.5031 mace_energy_eV=-13407.912544 delta_E_eV_atom=0.5946172491248944 sg=P1
N  14.03780391  14.67024067  14.70275158
N  12.96952952  14.37451882  13.86487056
N  13.04521192  13.13824485  14.39394559
N  14.38659318  15.81286150  16.80605224
N  14.37362749  15.80784257  15.24003442
N  16.04617213  14.68424727  13.07322737
N  14.01023713  13.36191409  15.23201104
N  15.41031784  15.70681701  16.22053780
N  16.85077704  15.42726536  12.96062610
