9
formula=N9 topology=ring-3-substituted n_edges=9 n_rings=1 ff_energy=260.5002 mace_energy_eV=-13410.679065 delta_E_eV_atom=0.2872260796566479 sg=P1
N  16.29016181  15.30271314  15.55888652
N  15.12399442  16.99286783  14.72252950
N  13.30549833  12.19536874  15.37406990
N  13.54510002  12.96571204  16.12554994
N  16.28372312  13.30743726  14.62623374
N  15.98980097  12.51974336  13.84053833
N  15.93889494  16.59621556  15.63322030
N  15.80932716  14.64434307  14.59842455
N  14.42124810  17.47339560  14.01407742
