9
formula=N9 topology=ring-6-substituted n_edges=9 n_rings=1 ff_energy=28.9165 mace_energy_eV=-13413.254697 delta_E_eV_atom=0.0010447234226376167 sg=P1
N  17.12510521  13.64885293  17.09854257
N  14.55710875  13.92806555  13.31506494
N  18.87386200  14.81728225  14.14180251
N  13.03358046  16.01632825  15.76818137
N  17.88666288  14.79662727  13.63984059
N  12.31426519  16.69488272  16.37427901
N  11.59810967  17.37130197  16.98334992
N  16.18635019  13.79377196  16.52818067
N  13.53234397  13.81392760  12.92061328
