9
formula=N9 topology=ring-3-substituted n_edges=9 n_rings=1 ff_energy=291.8862 mace_energy_eV=-13413.209158 delta_E_eV_atom=0.006104629803985517 sg=P1
N  16.37508431  11.79247052  16.42596402
N  20.58662420  13.56590165  16.02643579
N  13.18863207  19.51145184  13.46925114
N  19.57646244  13.12425736  16.10603705
N  13.33746934  20.43309964  12.78426423
N  15.27650615  11.67953648  16.40313206
N  11.82169785  11.95112012  16.07649093
N  10.72325731  11.86387844  15.99589041
N  13.03981107  18.59005368  14.15450785
