9
formula=N9 topology=ring-4-substituted n_edges=9 n_rings=1 ff_energy=107.8465 mace_energy_eV=-13410.584206 delta_E_eV_atom=0.2977659270056847 sg=P1
N  15.03993822  16.46231162  14.71493044
N  16.48432118  15.40683089  13.81305417
N  15.81787935  15.24400382  14.90700063
N  13.26763511  14.16503083  13.73274258
N  12.67419899  15.01566729  13.35476811
N  15.46341777  16.85050108  13.65663430
N  14.93914069  13.53100359  17.87633103
N  17.25301998  15.18948001  12.99872827
N  14.02708889  13.71409455  17.28555503
