9
formula=N9 topology=bicyclic-3-3 n_edges=10 n_rings=2 ff_energy=500.2016 mace_energy_eV=-13410.284199 delta_E_eV_atom=0.33110001395107247 sg=P1
N  14.11731517  13.84124177  16.08141556
N  14.77887869  13.13198616  14.18625526
N  14.81478761  15.86589855  16.64579645
N  15.49568244  13.38340028  13.07635000
N  15.39696135  16.78259289  16.40346647
N  14.13341959  14.84394110  16.97759628
N  16.60143633  15.49230219  12.95887401
N  14.80001611  14.08874992  15.03123659
N  16.07454145  14.51574483  13.04072412
