9
formula=N9 topology=ring-4-substituted n_edges=9 n_rings=1 ff_energy=103.3997 mace_energy_eV=-13408.784319 delta_E_eV_atom=0.49775337478831716 sg=P1
N  16.14543615  16.34169698  16.11666578
N  14.34626065  13.20042606  14.31884221
N  16.57591800  17.32899059  15.83919054
N  14.82247464  13.27161299  15.52788174
N  15.58286095  15.30086787  16.55952182
N  15.80450175  12.28067736  15.96858427
N  15.93267086  14.21032216  15.75845801
N  16.60541516  13.14675638  16.35632290
N  13.73316992  13.10497825  13.39822656
