9
formula=N9 topology=branched-tree n_edges=8 n_rings=0 ff_energy=21.5458 mace_energy_eV=-13411.533213 delta_E_eV_atom=0.19232074649971764 sg=P1
N  14.84373639  13.02571024  14.83412556
N  16.51982012  13.45858666  13.41107771
N  17.29627578  14.23099125  16.78588708
N  12.54250304  13.52464744  15.01982913
N  13.62263590  13.33689437  14.85477203
N  14.88439699  17.16174789  14.14629630
N  16.79843355  15.12458236  16.36869822
N  15.40576509  13.66134043  13.67692008
N  14.72904999  18.25358729  14.21254582
