9
formula=N9 topology=branched-tree n_edges=8 n_rings=0 ff_energy=26.2722 mace_energy_eV=-13412.567025 delta_E_eV_atom=0.07745266386427829 sg=P1
N  15.36798014  12.82109840  15.50414200
N  15.91759727  16.68622363  12.75765253
N  13.40297499  17.13856677  17.65418287
N  13.36904820  16.54894695  16.65977109
N  13.22169408  12.33728108  14.77964963
N  17.24137340  16.47801635  14.64741372
N  14.29437068  12.57934723  15.14047522
N  13.35353108  15.95459511  15.66377241
N  16.58355536  16.58251681  13.69937317
