9
formula=N9 topology=ring-5-substituted n_edges=9 n_rings=1 ff_energy=37.1812 mace_energy_eV=-13412.119001 delta_E_eV_atom=0.1272331657394261 sg=P1
N  14.27032272  13.35082433  15.46114462
N  17.40371931  16.38240237  15.83653758
N  13.04740728  16.02762370  14.75417005
N  16.32607094  16.40078527  16.02862240
N  16.26897507  13.93378704  14.95367398
N  15.49757465  13.49012478  15.93839852
N  15.52015461  14.07634805  13.87235134
N  14.28784844  13.70890798  14.18320978
N  12.40599236  15.81647122  13.89257075
