9
formula=N9 topology=ring-3-substituted n_edges=9 n_rings=1 ff_energy=237.7157 mace_energy_eV=-13413.268417 delta_E_eV_atom=-0.00047973295272640826 sg=P1
N  13.14485394  16.36447851  12.23657425
N  15.75554982  15.73964736  15.68049336
N  13.23437988  17.28944874  11.63527292
N  17.34611420  13.38077878  17.95837550
N  15.67267212  16.68652095  15.01444635
N  13.33271715  13.56831565  14.33877591
N  13.66170158  12.87678893  15.13665031
N  15.55703909  17.60913345  14.32168349
N  16.53595800  12.78420481  17.50405249
