9
formula=N9 topology=bicyclic-4-5-6 n_edges=11 n_rings=3 ff_energy=127.7191 mace_energy_eV=-18870.739886 delta_E_eV_atom=-606.3861985120038 sg=P1
N  13.56863495  15.95120052  15.42027746
N  13.93377955  16.41925948  14.44029360
N  15.91347516  14.22729195  14.85821168
N  18.13651555  6.99334055  12.93688425
N  14.61216614  16.85987736  15.49298392
N  14.60003131  16.14199579  15.15890342
N  13.40106087  16.75659484  15.79439469
N  15.14427261  16.75893547  15.82684589
N  14.28274157  15.26161026  15.39381256
