9
formula=N9 topology=bicyclic-3-5 n_edges=10 n_rings=2 ff_energy=272.3417 mace_energy_eV=-13408.402623 delta_E_eV_atom=0.5401640178345133 sg=P1
N  14.75928620  13.22619425  14.66429356
N  13.57489573  13.65282541  14.90779465
N  13.24235344  14.93205327  14.94714547
N  13.69626349  14.62096217  16.14948134
N  15.52083283  16.03294623  13.31044699
N  14.93525034  14.63488668  16.47623737
N  15.67989870  13.97134429  15.45589960
N  16.84881387  13.85354040  15.43353940
N  15.81391212  16.67442341  14.15407933
