9
formula=N9 topology=bicyclic-4-4-5 n_edges=11 n_rings=3 ff_energy=309.8241 mace_energy_eV=-14415.804181 delta_E_eV_atom=-111.39334245925215 sg=P1
N  16.45454804  14.98131899  15.24983781
N  11.84577261  16.38529696  18.56418385
N  15.11315880  14.05688894  14.88323348
N  16.70042751  14.48822205  13.86449799
N  11.94767516  14.14614825  14.51636743
N  17.48734770  13.13347488  13.55938718
N  16.71451114  12.65244621  12.77260666
N  16.03932624  15.15299999  15.31383632
N  11.77399895  15.31879378  16.08351246
