9
formula=N9 topology=bicyclic-4-4-4 n_edges=11 n_rings=3 ff_energy=244.9921 mace_energy_eV=-13408.575207 delta_E_eV_atom=0.5209879955057204 sg=P1
N  16.01039000  16.10753380  15.52085036
N  15.77744376  14.46327344  16.61489592
N  14.87552328  15.51512373  16.28446866
N  13.72874820  15.21056251  15.76143443
N  15.82252593  15.99030451  14.13765520
N  12.65590053  14.98443638  15.56525537
N  16.73091001  15.00020200  16.04626105
N  15.74566875  14.79544885  13.74412634
N  15.63823163  13.83394527  13.18312203
