9
formula=N9 topology=ring-3-substituted n_edges=9 n_rings=1 ff_energy=287.0010 mace_energy_eV=-13409.942136 delta_E_eV_atom=0.36910703917442333 sg=P1
N  15.75020071  14.71144163  13.61900317
N  14.71529530  15.01037323  12.75272372
N  15.77493801  13.26490870  13.89348512
N  16.57748426  13.63579674  13.05418108
N  13.68582015  17.10511126  13.05383315
N  14.20041246  16.12004073  12.93456203
N  13.46053935  15.00320788  15.97644602
N  14.97465827  14.87822648  17.72411433
N  14.21398790  14.93850410  16.85502178
