9
formula=N9 topology=bicyclic-4-6 n_edges=10 n_rings=2 ff_energy=113.2565 mace_energy_eV=-13407.149943 delta_E_eV_atom=0.6793507309369033 sg=P1
N  15.49679034  14.90051341  16.53611620
N  15.13239396  15.16521765  13.31062322
N  16.05780782  15.74804572  13.74177724
N  13.85844793  16.06481202  15.30901112
N  16.29451102  16.09608859  15.10079448
N  13.34002077  13.95650274  14.34788111
N  13.85337231  14.95188023  14.55484274
N  15.04545269  16.16437895  15.94221974
N  16.51622649  14.79953036  15.84881880
