9
formula=N9 topology=bicyclic-5-6 n_edges=10 n_rings=2 ff_energy=654.8179 mace_energy_eV=-13412.133007 delta_E_eV_atom=0.12567690055175262 sg=P1
N  16.20648570  14.59281244  16.21153736
N  16.29739704  14.32660442  12.60657418
N  15.95098202  13.71552006  11.76671560
N  13.71271282  15.93213614  13.01855788
N  13.90393109  16.64800934  14.11843837
N  13.91369802  14.57454372  14.66634163
N  13.72421313  14.64290492  13.37589872
N  14.02374422  15.82723617  15.13372902
N  15.77412919  14.37814985  17.19610544
