9
formula=N9 topology=bicyclic-3-4 n_edges=10 n_rings=2 ff_energy=946.5512 mace_energy_eV=-13413.231849 delta_E_eV_atom=0.003583424897669829 sg=P1
N  12.60219614  13.83802088  17.89102682
N  15.33638963  18.57232658  15.72413946
N  14.60810678  16.58559156  16.67008125
N  14.97364847  17.57978558  16.19801989
N  17.84484219  15.48144527  11.98277456
N  12.93174182  13.39874731  16.93356537
N  13.90367583  12.40222643  13.77183091
N  17.00185460  14.82090831  12.26231899
N  14.39471242  12.25963753  12.79323395
