9
formula=N9 topology=ring-4-substituted n_edges=9 n_rings=1 ff_energy=109.6306 mace_energy_eV=-13413.260655 delta_E_eV_atom=0.0003827251600796444 sg=P1
N  15.53976268  17.46932458  12.35986867
N  17.30527746  12.29195147  13.56415970
N  13.50230589  17.14805196  17.71829103
N  13.08075276  16.17994384  17.39218412
N  18.29823280  12.46602411  13.11183143
N  13.16579203  13.13806768  15.33606127
N  14.41074783  16.25212178  13.97869434
N  14.03232377  12.64852729  14.85912424
N  14.97549210  16.86141291  13.16610349
