9
formula=N9 topology=ring-4-substituted n_edges=9 n_rings=1 ff_energy=119.6747 mace_energy_eV=-13409.197848 delta_E_eV_atom=0.4518056528509078 sg=P1
N  17.21953129  14.80569104  15.52648050
N  15.69330601  15.06365968  14.66569486
N  14.59084572  14.19492528  14.50928004
N  13.69346916  14.74041942  13.80394716
N  16.92226254  14.51819640  14.33631706
N  12.06228434  14.72111985  16.81377725
N  12.72493280  15.59993172  16.83456393
N  16.11640881  15.23113355  15.97486517
N  12.83203744  15.10917630  13.20502643
