9
formula=N9 topology=bicyclic-3-4-4 n_edges=11 n_rings=3 ff_energy=567.9628 mace_energy_eV=-46238.206262 delta_E_eV_atom=-3647.2157958727416 sg=P1
N  15.40857334  12.91547130  16.67660904
N  14.49289345  14.60840840  16.14565788
N  15.61874446  15.73093524  15.28536525
N  13.53975375  14.47574012  13.09732910
N  16.41839043  13.32534680  14.58210145
N  14.08711669  14.60716170  14.51955449
N  10.08597718  15.04456011  15.04627636
N  16.04253352  13.13618660  14.48544459
N  15.76263100  12.88721390  14.26881488
