9
formula=N9 topology=bicyclic-3-6-7 n_edges=11 n_rings=3 ff_energy=250.4334 mace_energy_eV=-13406.983360 delta_E_eV_atom=0.6978599391018179 sg=P1
N  16.29653668  15.65751879  14.40930703
N  15.43983147  16.11259348  15.41564489
N  15.89743650  14.78809945  13.65537032
N  14.66217673  14.26984617  13.70837265
N  15.03578454  13.96707753  15.95948384
N  14.21357298  13.84239575  14.90796826
N  14.14590132  16.16700417  14.95115169
N  15.60898627  15.00238879  16.24786171
N  13.71394253  15.15848907  14.43025237
