9
formula=N9 topology=ring-4-substituted n_edges=9 n_rings=1 ff_energy=87.2660 mace_energy_eV=-16498.968174 delta_E_eV_atom=-342.85600834161096 sg=P1
N  13.70030358  12.24318020  13.95005567
N  16.82061568  15.80346981  13.39380085
N  12.91610075  15.72738399  14.68704339
N  18.61173022  13.52354327  13.73356428
N  14.05166413  12.44770847  13.73394889
N  14.19327334  13.23457839  13.00307559
N  14.90374853  11.81699641  13.31558843
N  15.14961336  24.24945148  25.42289790
N  14.06498905  13.46350771  14.92776717
