9
formula=N9 topology=bicyclic-5-5 n_edges=10 n_rings=2 ff_energy=52.5480 mace_energy_eV=-13409.017619 delta_E_eV_atom=0.4718311528361028 sg=P1
N  16.33221386  15.45952211  13.80430196
N  15.15226529  15.41241241  14.38088952
N  13.92389002  14.25301096  15.76849994
N  16.93948334  14.39881481  14.27161855
N  13.27934104  15.38541217  15.26881606
N  16.21113195  13.69801108  15.10266573
N  12.18213675  15.68194052  15.56879852
N  15.08031232  14.36563407  15.15244250
N  14.05323006  16.13466195  14.38158416
