9
formula=N9 topology=bicyclic-4-4-4 n_edges=11 n_rings=3 ff_energy=221.9503 mace_energy_eV=-13410.617252 delta_E_eV_atom=0.2940941111510256 sg=P1
N  14.81335096  14.89477974  13.81248291
N  17.19412992  12.76052033  13.67602646
N  13.13768824  16.77959930  13.69485942
N  16.49799654  13.99196123  16.86725957
N  14.23971720  15.61795110  14.47713011
N  16.81446221  12.60984658  12.65321439
N  13.83976402  16.19005838  15.56379489
N  16.63571524  14.01076675  17.96116803
N  12.94966690  17.11619888  14.83307817
