9
formula=N9 topology=bicyclic-3-3-5-5 n_edges=12 n_rings=4 ff_energy=481.9024 mace_energy_eV=-13415.388693 delta_E_eV_atom=-0.23606592151963923 sg=P1
N  14.62473611  14.99996478  16.65235023
N  15.42200793  14.02352505  16.53528642
N  14.90006302  16.60941022  14.60541386
N  14.87155409  15.56776592  15.21781953
N  15.19462850  16.10316658  13.43610821
N  14.13315479  13.89966254  16.26439592
N  15.01738626  13.36958544  15.52960815
N  15.33513481  14.80504638  13.36283776
N  15.11356622  14.56345364  14.52616007
