9
formula=N9 topology=ring-3-substituted n_edges=9 n_rings=1 ff_energy=234.7373 mace_energy_eV=-13411.227400 delta_E_eV_atom=0.22629993568648388 sg=P1
N  17.11309219  16.44987741  15.68222839
N  14.61081495  15.36512539  13.73371293
N  17.32500933  13.82520746  14.03833624
N  12.35564861  14.68825827  13.96211204
N  16.36056658  14.08421241  13.53377632
N  13.43018038  14.98456822  13.86272431
N  16.14396640  16.32373038  16.30180478
N  15.17915718  16.21471149  16.93357708
N  15.30380524  14.37414073  12.94016891
