9
formula=N9 topology=ring-4-substituted n_edges=9 n_rings=1 ff_energy=107.7612 mace_energy_eV=-13413.247468 delta_E_eV_atom=0.0018479649872915616 sg=P1
N  16.15077779  19.67755795  15.54094404
N  17.07669969  11.96599296  12.79022333
N  13.78916930  11.40402235  15.80262142
N  12.82495242  14.89330339  14.94287754
N  15.35973902  18.83195651  15.54854612
N  12.90603872  11.60074280  16.44275507
N  13.77121581  14.58896370  14.45556508
N  16.20642955  12.38525949  13.32595702
N  14.57006111  17.98174013  15.55266481
