9
formula=N9 topology=ring-4-substituted n_edges=9 n_rings=1 ff_energy=104.3498 mace_energy_eV=-13409.878697 delta_E_eV_atom=0.3761558120506834 sg=P1
N  15.27186733  14.62627549  14.14269898
N  14.87191495  13.97085092  12.93900855
N  14.92846802  14.56206945  11.91613030
N  15.12124568  14.64923263  16.27678049
N  14.72301903  14.06281630  15.08638066
N  15.42187058  16.22422977  12.21146510
N  14.05589681  13.59418566  18.11120954
N  15.54275248  16.81142353  11.26050736
N  14.53087063  14.05270799  17.21669041
