9
formula=N9 topology=branched-tree n_edges=8 n_rings=0 ff_energy=16.3201 mace_energy_eV=-13410.650122 delta_E_eV_atom=0.2904419808512557 sg=P1
N  14.55444575  14.03447272  16.36306204
N  14.85329093  16.09909115  15.94563619
N  15.43065606  14.84152171  16.04965523
N  15.17070311  12.64408442  16.49453971
N  13.90089189  11.98655115  13.45546361
N  14.50473816  12.90965047  13.45684997
N  15.74861258  16.92689064  15.64236640
N  14.43223135  11.78290850  16.63938167
N  16.46931191  17.72793827  15.37416673
