9
formula=N9 topology=bicyclic-3-5 n_edges=10 n_rings=2 ff_energy=811.5030 mace_energy_eV=-13410.358019 delta_E_eV_atom=0.3228978589811504 sg=P1
N  14.58197289  15.74892476  13.60055157
N  14.10952925  13.26713530  12.60274417
N  13.26735505  13.44841679  13.28499208
N  14.34741529  16.92601929  14.49853019
N  14.72509887  16.57896906  16.84471584
N  16.41336831  14.00493634  16.77260259
N  14.64449653  16.62930409  15.74233518
N  17.01432619  13.24223478  17.29931430
N  15.44541603  16.58585412  13.58596114
