9
formula=N9 topology=ring-5-substituted n_edges=9 n_rings=1 ff_energy=37.6337 mace_energy_eV=-13409.712805 delta_E_eV_atom=0.3945882780424199 sg=P1
N  16.96026389  15.04597011  16.59702242
N  14.30564395  13.98882452  13.57954730
N  16.04380528  14.21277694  14.84767188
N  16.32017519  15.41996879  15.45025788
N  16.02143132  16.47621811  14.97191035
N  17.05919183  13.72653949  16.58377197
N  15.57100955  14.13994084  13.55614989
N  16.54805088  13.20017153  15.55370758
N  13.20949469  13.87363072  13.44745925
