9
formula=N9 topology=ring-3-substituted n_edges=9 n_rings=1 ff_energy=286.1337 mace_energy_eV=-13409.911500 delta_E_eV_atom=0.37251107267275074 sg=P1
N  16.19999427  12.99760958  16.22362425
N  14.47198100  17.02354184  15.52613805
N  14.37661326  16.68583335  14.34057868
N  14.31814769  14.86547544  12.88271266
N  13.81484985  15.44037393  14.13546337
N  16.46438041  13.61119839  15.27880786
N  14.59385157  17.37689722  16.57996474
N  15.91611317  12.38951976  17.16690696
N  13.21037500  15.36909147  12.79745415
