9
formula=N9 topology=ring-6-substituted n_edges=9 n_rings=1 ff_energy=25.8088 mace_energy_eV=-13410.164763 delta_E_eV_atom=0.3443706982925505 sg=P1
N  16.30772596  14.81548326  15.10949465
N  14.90539642  13.20299428  15.91126107
N  15.44244055  14.32075536  16.06979541
N  14.20138547  17.09701408  14.82065340
N  16.59081019  14.12207263  14.10781302
N  15.14462405  12.48059859  14.75889862
N  14.59292745  18.08974076  15.25891584
N  15.96624253  12.90357940  13.91456049
N  13.83865686  16.07910532  14.39530978
