9
formula=N9 topology=ring-5-substituted n_edges=9 n_rings=1 ff_energy=38.7092 mace_energy_eV=-13410.681016 delta_E_eV_atom=0.2870093094238655 sg=P1
N  16.10580673  13.23217525  14.87270442
N  15.53377244  14.17690581  15.62685679
N  16.50244508  13.62296996  13.71223814
N  12.56406258  15.19013796  14.23625207
N  12.30751772  16.26212520  14.21188066
N  14.69380976  17.34964532  15.82343177
N  14.89363520  16.23805253  16.03903467
N  15.49586550  15.34164106  15.13683386
N  16.89420671  13.79035776  12.69037684
