9
formula=N9 topology=bicyclic-3-3 n_edges=10 n_rings=2 ff_energy=500.0798 mace_energy_eV=-13410.283833 delta_E_eV_atom=0.33114072741909695 sg=P1
N  14.87628537  16.21716229  13.03432869
N  15.91905067  16.59578017  14.85154949
N  14.14014347  15.34954541  12.31790255
N  13.69408616  13.23306078  13.32072889
N  13.91511509  14.22925687  12.87794282
N  15.52635180  13.94744066  16.65219277
N  15.86780800  14.96161835  16.34740066
N  15.21495976  15.76896442  14.18067343
N  16.28185507  16.12984875  16.05952776
