9
formula=N9 topology=ring-6-substituted n_edges=9 n_rings=1 ff_energy=26.2314 mace_energy_eV=-13409.718459 delta_E_eV_atom=0.3939600000981045 sg=P1
N  15.26598552  14.70950064  15.04059363
N  17.03679582  14.87263955  12.49605293
N  15.18659063  14.72063862  16.32407798
N  12.91798752  14.85457632  16.39292072
N  13.95855218  14.75619006  13.19944969
N  17.25120394  15.70730084  13.18145862
N  14.11179488  14.78510060  17.01671436
N  12.69403884  14.85614829  15.19937864
N  14.10561556  14.76450232  14.34328566
