9
formula=N9 topology=bicyclic-3-6 n_edges=10 n_rings=2 ff_energy=241.0518 mace_energy_eV=-13409.788061 delta_E_eV_atom=0.3862265154339184 sg=P1
N  15.47730482  14.03903274  14.60223452
N  14.71839553  14.08158972  11.03320811
N  14.69115661  16.37193285  15.77007616
N  14.83344496  14.95976603  13.96480097
N  14.49599794  16.07955731  14.60289721
N  15.66365103  15.37265397  17.67506554
N  15.47255786  15.16810175  16.55644971
N  15.81930714  14.07005859  15.83385434
N  13.95017911  13.47160128  11.53466387
