9
formula=N9 topology=ring-7-substituted n_edges=9 n_rings=1 ff_energy=25.2425 mace_energy_eV=-13413.348228 delta_E_eV_atom=-0.009347611432986014 sg=P1
N  17.18366034  14.05843548  16.76674558
N  14.86784385  17.65571543  14.89792395
N  15.64094691  14.50195432  12.32888794
N  11.82292550  14.31638007  15.19407074
N  15.42964702  16.78446405  15.28920642
N  12.97269665  12.53338809  16.12130693
N  12.39216340  13.42037057  15.65598088
N  16.19060116  13.65106760  12.77470747
N  16.64931483  14.89417904  16.27293233
