9
formula=N9 topology=ring-5-substituted n_edges=9 n_rings=1 ff_energy=36.0677 mace_energy_eV=-13409.565117 delta_E_eV_atom=0.4109980668240496 sg=P1
N  13.92095183  13.40930173  15.59293959
N  13.40948821  12.90626034  16.44112366
N  14.68726457  15.25773720  14.84438383
N  16.43168600  17.71345037  16.16687571
N  15.26277295  17.14825791  14.07798910
N  15.89509813  16.81859441  15.66170208
N  15.55812566  15.59072737  15.86740340
N  14.70637665  16.08982475  13.82354520
N  14.48171294  13.89753100  14.57095328
