9
formula=N9 topology=bicyclic-4-4-5 n_edges=11 n_rings=3 ff_energy=185.2932 mace_energy_eV=-13407.425676 delta_E_eV_atom=0.6487136826256119 sg=P1
N  15.79778869  16.33957194  15.00019753
N  15.38827752  13.79202810  13.57488844
N  14.81339446  16.32517480  15.71914749
N  13.62898403  13.76629778  14.85978420
N  16.45075261  15.05508983  15.56796462
N  15.18009408  15.03650596  16.49598702
N  15.75362162  14.04499683  14.81099212
N  14.69038186  14.02944655  15.58752672
N  14.10072353  13.55476830  13.65433165
