9
formula=N9 topology=bicyclic-3-5-5 n_edges=11 n_rings=3 ff_energy=814.4345 mace_energy_eV=-13413.342006 delta_E_eV_atom=-0.00865633383750719 sg=P1
N  13.79759410  16.48096751  13.49205015
N  13.48863897  12.34251349  14.98461599
N  16.61794143  14.38088048  14.26243255
N  12.95424602  16.36905643  16.97778343
N  14.25328129  16.74432254  12.52060363
N  12.74075382  17.10386364  17.77356294
N  13.24537844  13.35794059  15.34426974
N  18.91051060  14.17941450  14.54754999
N  17.76673810  14.27832466  14.40445154
