9
formula=N9 topology=branched-tree n_edges=8 n_rings=0 ff_energy=26.3398 mace_energy_eV=-13413.346070 delta_E_eV_atom=-0.009107854414423855 sg=P1
N  17.05668366  15.50789876  13.12402529
N  13.94477754  17.05993658  15.79541789
N  12.85913455  13.62298382  12.84462318
N  16.47197133  15.52098280  17.73754992
N  17.07365401  15.12045511  18.57207399
N  13.52071232  14.40943643  13.38858115
N  12.20288314  12.83862574  12.30408851
N  16.90275084  15.52801326  14.21792454
N  12.86706147  17.27594638  15.68750785
