9
formula=N9 topology=bicyclic-3-4 n_edges=10 n_rings=2 ff_energy=318.2545 mace_energy_eV=-13408.853196 delta_E_eV_atom=0.49010033148260845 sg=P1
N  15.79529768  16.91923264  15.35906144
N  14.15173709  15.55699882  15.83058691
N  14.56608715  12.85436303  13.80877819
N  14.81086522  13.37954566  14.90588819
N  13.74400510  14.21150662  15.31544825
N  15.54441483  15.79825394  15.82822081
N  13.83462209  14.51879481  16.61826793
N  14.44467709  12.36031383  12.81515326
N  16.11509268  17.89715843  14.92621882
