9
formula=N9 topology=ring-3-substituted n_edges=9 n_rings=1 ff_energy=230.0822 mace_energy_eV=-13408.014177 delta_E_eV_atom=0.5833247311936702 sg=P1
N  16.51591690  14.73968166  16.35157181
N  14.40632370  15.40501728  14.00053100
N  17.51389838  14.40934184  16.66023107
N  13.30973343  14.37246481  16.43928130
N  15.32462039  15.11742140  15.97633141
N  14.99690873  14.50516132  14.73401547
N  14.16264274  16.05230408  13.13192386
N  14.45297555  13.99274854  15.94377678
N  12.39374045  14.38640767  17.06668396
