9
formula=N9 topology=bicyclic-3-4 n_edges=10 n_rings=2 ff_energy=295.3743 mace_energy_eV=-13407.854428 delta_E_eV_atom=0.6010745999185474 sg=P1
N  15.56329135  13.81662684  14.09032182
N  14.13890756  13.73973973  14.26287716
N  14.74092111  14.95407090  13.78810826
N  16.27808682  13.90995467  15.23227119
N  17.16909840  13.72093815  15.87552384
N  13.01826590  13.49356432  16.37393640
N  13.70854061  13.77033723  15.54263807
N  14.79218197  15.96026690  14.68679960
N  14.76920634  17.03334484  14.99043014
