9
formula=N9 topology=bicyclic-3-3-4 n_edges=11 n_rings=3 ff_energy=552.9852 mace_energy_eV=-16288.902779 delta_E_eV_atom=-319.51540882248673 sg=P1
N  15.91030465  15.16277998  15.50909056
N  12.40048163  18.66315866  16.29884951
N  15.59307594  13.32936843  15.71080669
N  16.18745790  14.45654118  14.48479866
N  12.36917834  18.32094113  15.94861298
N  15.39551660  13.23560306  14.56810063
N  11.90711489  18.42922147  16.23959001
N  16.90343625  13.80559137  15.10335836
N  17.77568001  10.79474799  11.90592744
