9
formula=N9 topology=bicyclic-3-5 n_edges=10 n_rings=2 ff_energy=272.0790 mace_energy_eV=-13410.809897 delta_E_eV_atom=0.2726891230684032 sg=P1
N  15.79658417  15.00702765  16.85280266
N  15.51841342  16.29888597  15.70028035
N  17.94805939  14.25675957  12.90902572
N  11.73930576  14.86222790  14.18670437
N  17.17408548  14.63459586  13.59908596
N  12.66624891  14.99733464  14.78306672
N  13.68258968  15.03623904  15.53521496
N  15.05565121  14.99802055  17.68398072
N  14.47065754  16.13782189  15.14244858
