9
formula=N9 topology=ring-4-substituted n_edges=9 n_rings=1 ff_energy=93.6503 mace_energy_eV=-13409.654189 delta_E_eV_atom=0.4011011319632871 sg=P1
N  15.09476320  16.42720498  14.62503458
N  15.62192831  13.56930645  13.53838104
N  16.49535180  13.05306268  13.07728561
N  15.59474821  17.13954642  15.35837939
N  14.72454431  15.89180119  18.08410306
N  13.98981311  14.88867806  16.07139031
N  14.39922707  15.42482654  17.12444774
N  14.61877986  14.13073182  14.04122215
N  15.07406138  14.89548226  15.14804582
