9
formula=N9 topology=bicyclic-4-4 n_edges=10 n_rings=2 ff_energy=288.6501 mace_energy_eV=-17016.037128 delta_E_eV_atom=-400.308114287056 sg=P1
N  14.16888138  15.27753364  16.90731562
N  13.39064064  19.42422537  7.42719412
N  14.65776088  15.08330289  17.15926036
N  15.30648833  14.56898550  15.10939333
N  14.13910060  12.82088628  14.66796299
N  13.94629449  15.53756927  16.61714729
N  15.95915416  15.47072889  15.40384994
N  16.90427337  15.24511730  14.81008331
N  15.96988708  13.32487976  15.10461566
