9
formula=N9 topology=bicyclic-3-3-4-6 n_edges=12 n_rings=4 ff_energy=537.0339 mace_energy_eV=-63150.258494 delta_E_eV_atom=-5526.332710485467 sg=P1
N  14.94888873  12.64040745  15.03471489
N  14.33330763  11.72597414  15.72933052
N  18.15358522  28.33846171  13.22621286
N  16.52669916  12.28725455  15.92138507
N  12.70104290  16.26238107  17.87005881
N  14.77205588  12.90017740  15.27076655
N  13.24307203  12.33473325  15.05897779
N  14.27022409  14.31089621  14.99672222
N  15.02575650  13.78884688  16.28268034
