9
formula=N9 topology=bicyclic-3-4-6-6 n_edges=12 n_rings=4 ff_energy=329.1776 mace_energy_eV=-14756.623663 delta_E_eV_atom=-149.26217369491246 sg=P1
N  17.52491963  18.39279258  15.12190095
N  15.27643811  16.18057408  14.21962344
N  14.94125141  16.98181320  14.66868817
N  9.33365438  1.20542549  17.93227073
N  14.31996487  16.82074825  14.73144723
N  15.31325918  15.24329355  13.50811021
N  15.34130005  17.31967053  15.13024682
N  15.97233299  17.04038467  15.42308501
N  15.84177820  17.49417030  14.05286599
