9
formula=N9 topology=bicyclic-3-4-5 n_edges=11 n_rings=3 ff_energy=317.5803 mace_energy_eV=-14951.803561 delta_E_eV_atom=-170.9488290727934 sg=P1
N  8.89407396  11.89609806  12.51504790
N  14.47138987  16.28348548  16.36092917
N  14.65372255  16.36654292  15.13151324
N  15.18298475  14.79067513  15.70120214
N  17.66218067  17.48955594  14.06103065
N  17.47849180  13.75171374  14.67728202
N  14.76061085  16.40531377  14.64191881
N  17.09446918  16.99034906  14.59730392
N  14.74950970  16.45346370  13.97814228
