9
formula=N9 topology=bicyclic-4-5 n_edges=10 n_rings=2 ff_energy=644.3531 mace_energy_eV=-13413.058133 delta_E_eV_atom=0.022885188596546868 sg=P1
N  12.43058975  13.70479905  16.85126869
N  15.99068493  13.31547194  16.14231430
N  15.21739117  15.12566270  12.79563069
N  15.78366081  14.40961478  16.08595752
N  15.70029078  14.07866512  12.89568164
N  15.59534511  18.00591874  16.01554316
N  16.18228150  13.03671208  13.06372425
N  12.80951599  12.91769686  17.53471810
N  14.66518084  17.83423457  15.44560823
