9
formula=N9 topology=bicyclic-5-5-5-5 n_edges=12 n_rings=4 ff_energy=638.0599 mace_energy_eV=-13412.079940 delta_E_eV_atom=0.13157320880645784 sg=P1
N  16.73601057  13.21247507  13.97716475
N  16.33233631  15.12807187  17.04639263
N  16.06375825  12.74921544  14.70619399
N  13.15493454  16.21912027  14.96825395
N  14.13489576  14.56877019  14.01223625
N  12.97650030  15.17724115  14.14363510
N  14.42001018  16.22681494  15.32789651
N  17.21891517  15.51276488  16.52989678
N  15.02705484  15.21451079  14.73636841
