9
formula=N9 topology=bicyclic-4-4-5 n_edges=11 n_rings=3 ff_energy=296.8741 mace_energy_eV=-17431.425076 delta_E_eV_atom=-446.4623306936246 sg=P1
N  14.22113991  15.07676969  14.47695595
N  12.84299068  13.95733754  14.03189150
N  14.25401754  13.40522791  14.50402100
N  13.12218038  15.47212557  14.54788679
N  13.68871390  14.36099300  14.04205845
N  12.96706508  13.98030555  15.16866632
N  13.74892764  14.44057955  14.96441539
N  14.05361936  11.32985904  14.58610899
N  25.59105471  27.38575643  17.50228071
