9
formula=N9 topology=bicyclic-3-3 n_edges=10 n_rings=2 ff_energy=502.6252 mace_energy_eV=-13410.709650 delta_E_eV_atom=0.28382774043257086 sg=P1
N  16.14324493  12.72654237  17.38617516
N  14.83358458  13.61446055  11.76287996
N  14.90963197  16.49301075  14.91410120
N  14.30496710  14.38140773  15.21476664
N  15.71625444  13.64824381  12.42337027
N  15.49526807  17.41619984  15.08412141
N  15.38880091  13.10824373  16.62014484
N  14.10291166  15.54266318  14.58253774
N  15.25993691  14.35696788  16.04326402
