9
formula=N9 topology=ring-3-substituted n_edges=9 n_rings=1 ff_energy=261.0888 mace_energy_eV=-13411.457845 delta_E_eV_atom=0.20069489753905145 sg=P1
N  17.76041014  15.84694698  17.25409706
N  16.11361681  13.52751256  12.98026749
N  14.30962919  15.35277424  14.97718389
N  14.35793000  14.02477948  15.52612531
N  16.62941523  14.46097842  12.69375277
N  17.05116609  16.65389200  17.00836960
N  15.40120436  13.63837832  15.88635573
N  12.07379930  15.93422968  14.46544460
N  13.09225673  15.58787446  14.73692178
