9
Properties=species:S:1:pos:R:3:forces:R:3:charge:R:1 formula=N9 topology=ring-3-substituted n_edges=9 n_rings=1 ff_energy=232.4792 mace_energy_eV=-13410.8034 delta_E_eV_atom=0.2734110737208084 sg=P1 energy=-708.5270427778562 free_energy=-708.5270427778562 dipole="0.11828423480117889 -0.014217376127499829 0.07529064977096094" pbc="F F F"
N       17.32681871      16.28397885      14.92752431       0.00009987       0.00008427      -0.00005826      -0.18005546
N       13.86690644      14.79069518      15.07182692       0.00006531       0.00000461       0.00006073      -0.07495221
N       13.37052657      17.93889775      14.28868317      -0.00003325       0.00001111      -0.00000123       0.00786479
N       14.21145933      17.38765376      14.73195362       0.00002211      -0.00002129      -0.00001798      -0.01813974
N       15.84984359      14.92823907      16.08096128      -0.00026299      -0.00012087       0.00001317      -0.01119173
N       11.68807109      14.31118373      14.48645168       0.00007335      -0.00003638       0.00003095      -0.19148762
N       14.66666795      14.45151776      16.07623693       0.00010276       0.00005087      -0.00006713      -0.08832731
N       16.49927879      15.65892036      15.37890100      -0.00005199      -0.00004821       0.00003399       0.27684679
N       12.73225296      14.45387987      14.89585248      -0.00001516       0.00007590       0.00000576       0.27944249
