4
Properties=species:S:1:pos:R:3:forces:R:3:charge:R:1 formula=N4 topology=ring-3-subst integrity=OK energy_eV=-5958.570336 delta_E_eV_atom=0.8469 sg=P1 energy=-311.356682215054 free_energy=-311.356682215054 dipole="-0.09505554474808443 0.18244977935286708 0.07212329492510841" pbc="F F F"
N        0.14345161      -0.27524151      -0.10874077      -0.00021495       0.00014671      -0.00037318       0.37766897
N       -0.92987754       0.42472012       0.42684141      -0.00008570      -0.00013798       0.00011995      -0.05771837
N        0.14296711       1.08532198       0.16990736       0.00020425       0.00003783       0.00004996      -0.05770999
N        0.64345883      -1.23480059      -0.48800800       0.00009640      -0.00004656       0.00020326      -0.26224061
