8
 energy: -23.220625059096 gnorm: 0.000838561326 xtb: 6.6.1 (8d0f1dd)
N            1.26563442870912        0.01295249971911        0.07058539604172
N            0.53384907416570        1.12236166854969        0.10844092304809
N           -0.66914406235347        0.71890639721255        0.00857096154119
N           -0.69421975179896       -0.58932739754745       -0.08786701189443
N            0.49470973314007       -1.04877718459419       -0.05156773115802
N            2.59066603814138       -0.05335689326866        0.14363117574438
N            3.33058547408957        0.88404485990126        0.25061376568049
N            4.19426747507152        1.58615773822289        0.34747336504070
