4
Properties=species:S:1:pos:R:3:forces:R:3:charge:R:1 formula=N4 topology=branched-tree integrity=OK energy_eV=-5954.780417 delta_E_eV_atom=1.7943 sg=P1 energy=-306.9826441075629 free_energy=-306.9826441075629 dipole="4.7713818928480796e-05 2.5660896827650976e-05 4.315297483204644e-05" pbc="F F F"
N       -0.33563107       0.05880035       1.21027912       0.00002865       0.00007773       0.00001354      -0.16826593
N       -0.00000020      -0.00000190       0.00000088      -0.00002455      -0.00015837       0.00016625       0.50484500
N       -0.74930208      -0.57027020      -0.83319663       0.00000355       0.00003602      -0.00012781      -0.16831778
N        1.08493336       0.51147175      -0.37708337      -0.00000766       0.00004462      -0.00005198      -0.16826130
