8
Properties=species:S:1:pos:R:3:forces:R:3:charge:R:1 formula=N8 topology=chain integrity=OK energy_eV=-11920.941063 delta_E_eV_atom=0.3718 sg=P1 energy=-630.9793742422419 free_energy=-630.9793742422419 dipole="-0.12190376350974061 -0.009227388423815607 -0.09888288383025946" pbc="F F F"
N       -1.01956639      -0.48923014      -0.09193806      -0.00010654       0.00003239       0.00020514      -0.04079991
N        0.13280356      -0.08152675       0.27045684       0.00006603       0.00012842       0.00003580      -0.08315698
N       -1.47726853      -0.09365430      -1.22924769      -0.00013822      -0.00024177      -0.00001133      -0.03892708
N       -1.07554540       0.61731313      -2.11645856       0.00022395       0.00010633      -0.00039801       0.28916516
N        1.54704507      -0.31380904       2.02135412       0.00019664       0.00008928       0.00027936       0.28720264
N        2.38195127      -0.29633623       2.77970413      -0.00006788      -0.00014233      -0.00017936      -0.19226355
N       -1.01295424       1.19196536      -3.08126138      -0.00010975       0.00003755       0.00011198      -0.16892062
N        0.52353465      -0.53472203       1.44739058      -0.00006423      -0.00000987      -0.00004359      -0.05229966
