8
Properties=species:S:1:pos:R:3:forces:R:3:charge:R:1 N8=T charge=0 mult=1 PG=C2h |=T B3LYP/aug-cc-pVDZ=T src:=T B=T p.51=T (B3LYP/aug-cc-pVDZ)=T -=T chaine=T EEE=T energy=-631.0201005184242 free_energy=-631.0201005184242 dipole="-2.1974777780503384e-05 -3.0313453159723697e-05 -1.8413070346652884e-15" pbc="F F F"
N       -0.06113895       0.22459744       0.00000000       0.00006987      -0.00023164      -0.00000000      -0.18808244
N        1.02824283      -0.06794166       0.00000000      -0.00005304       0.00016969       0.00000000       0.28826655
N        2.22406129      -0.02760478      -0.00000000       0.00011738       0.00017807      -0.00000000      -0.05512326
N        3.06709255      -1.03943450       0.00000000      -0.00007139      -0.00011898       0.00000000      -0.04505550
N        4.28907853      -0.72268443      -0.00000000      -0.00008365      -0.00002842      -0.00000000      -0.04506379
N        5.13209708      -1.73453916       0.00000000       0.00004312      -0.00000839       0.00000000      -0.05512787
N        6.32791320      -1.69416600      -0.00000000      -0.00012091       0.00005505       0.00000000       0.28827522
N        7.41732348      -1.98658692       0.00000000       0.00009861      -0.00001539      -0.00000000      -0.18808892
