4
Properties=species:S:1:pos:R:3:initial_magmoms:R:1:forces:R:3:charge:R:1 energy=-313.1142740305785 free_energy=-313.1142740305785 dipole="-1.0355523578167062e-05 -5.408720789462346e-06 -9.458853928034956e-16" pbc="F F F"
N       -0.03039480      -0.16367223       0.00000000       2.00000000      -0.00003026      -0.00001689       0.00000000      -0.19329358
N        1.02465576       0.32919656      -0.00000000       0.00000000      -0.00019658      -0.00013541       0.00000000       0.19329676
N        1.97197414       1.04071193       0.00000000       0.00000000       0.00013218       0.00010575      -0.00000000       0.19329763
N        3.02702460       1.53358007      -0.00000000       0.00000000       0.00009466       0.00004655       0.00000000      -0.19330081
