8
 energy: -23.055997694176 gnorm: 0.000248659804 xtb: 6.6.1 (8d0f1dd)
N            1.50947120971041       -0.00000378832861        0.00000506039939
N            0.59620765440686        1.10992871012728       -0.00003183248942
N           -0.59619873360143        1.10993413462267       -0.00002635117485
N           -1.50947353622775       -0.00000377772308        0.00001912212372
N           -0.59620140622880       -1.10992962204388       -0.00002632750383
N            0.59621203616764       -1.10992591001467       -0.00003183998257
N            2.66776059332389        0.00000004753376        0.00005097122768
N           -2.66777783421625        0.00000031967246        0.00004118635028
