4
Properties=species:S:1:pos:R:3:forces:R:3:charge:R:1 formula=N4 topology=ring-3-subst integrity=OK energy_eV=-5958.570327 delta_E_eV_atom=0.8469 sg=P1 energy=-311.35668220060086 free_energy=-311.35668220060086 dipole="-0.04064358956259526 -0.21416699983778714 -0.0037456435092695054" pbc="F F F"
N        0.06164764       0.32299595       0.00568119      -0.00020353       0.00004433       0.00000164       0.37767224
N        0.27604594       1.44916090       0.02543843       0.00000745       0.00007225      -0.00001511      -0.26225079
N        0.46086647      -1.00681517       0.03175033      -0.00000479      -0.00025482      -0.00000167      -0.05765834
N       -0.79856005      -0.76534167      -0.06286995       0.00020087       0.00013825       0.00001514      -0.05776311
