7
Properties=species:S:1:pos:R:3:forces:R:3:charge:R:1 formula=N7 topology=ring-3-substituted n_edges=7 n_rings=1 ff_energy=278.4827 mace_energy_eV=-10427.983132 delta_E_eV_atom=0.6508016481941468 sg=P1 energy=-549.3376135292266 free_energy=-549.3376135292266 dipole="-0.012736985261025157 0.3129702738353082 0.0028023736285178636" pbc="F F F"
N       14.34211140      16.55113619      14.42957184      -0.00003669       0.00012948      -0.00003077       0.31086081
N       13.97197026      17.57625260      14.16368460       0.00005138      -0.00001119       0.00003867      -0.16747945
N       14.99204278      12.39870101      14.79520213      -0.00010243      -0.00016577      -0.00006012      -0.16946381
N       14.51267698      15.37175548      14.52173165      -0.00007207      -0.00014682      -0.00010658      -0.08475519
N       16.06722201      12.47972343      15.69894795      -0.00004882       0.00014450      -0.00006217      -0.14855696
N       15.45141702      14.77099073      15.28187369       0.00001849      -0.00003704       0.00007748      -0.11489581
N       15.47209593      13.55003233      15.24667681       0.00019015       0.00008684       0.00014350       0.37429040
