9
Properties=species:S:1:pos:R:3:forces:R:3:charge:R:1 formula=N9 topology=ring-4-substituted n_edges=9 n_rings=1 ff_energy=103.3997 mace_energy_eV=-13408.784319 delta_E_eV_atom=0.49775337478831716 sg=P1 energy=-709.5378303155737 free_energy=-709.5378303155737 dipole="0.03594941195099615 -0.04830757157609456 0.09943552747942642" pbc="F F F"
N       16.39773780      16.64502750      16.11439229      -0.00015253      -0.00044175       0.00013853       0.28298189
N       14.29328314      12.83940887      14.31303732      -0.00005167       0.00006936      -0.00007361       0.28375325
N       16.60145182      17.75458546      16.04727337       0.00006779       0.00023888      -0.00003041      -0.17998500
N       14.83887235      12.03595957      15.01890876      -0.00001172      -0.00016306      -0.00001613      -0.06481710
N       16.08385257      15.55566610      16.49664377       0.00010005       0.00015001      -0.00013801      -0.03774575
N       15.65360966      12.21208953      16.05358183       0.00008154       0.00007939       0.00015657      -0.05215479
N       15.99597513      14.43803722      15.82400845      -0.00002659      -0.00002505       0.00010847      -0.07903263
N       16.00265290      13.33011375      16.44320024       0.00006442       0.00005436      -0.00004510       0.03332505
N       13.68127273      13.37544063      13.53264781      -0.00007129       0.00003785      -0.00010031      -0.18632491
