9
Properties=species:S:1:pos:R:3:forces:R:3:charge:R:1 formula=N9 topology=ring-5-substituted n_edges=9 n_rings=1 ff_energy=41.2916 mace_energy_eV=-13410.868387 delta_E_eV_atom=0.2661902949978412 sg=P1 energy=-710.0668716916531 free_energy=-710.0668716916531 dipole="0.13751010361973554 -0.12502195190754692 -0.658663039891042" pbc="F F F"
N       13.71496870      15.67554148      16.90400546       0.00003419      -0.00006075       0.00002131      -0.04969598
N       14.54367585      14.97042753      17.65526491      -0.00002297       0.00001751      -0.00002401      -0.04875437
N       13.95650450      15.45524177      15.67775274      -0.00001240       0.00007638       0.00001652      -0.16709021
N       15.32471112      14.29116374      16.92398476      -0.00004072       0.00000880      -0.00000305      -0.10665478
N       13.56879775      15.75527238      12.41604513       0.00001914      -0.00011605       0.00003515      -0.11423650
N       14.97508860      14.57909061      15.67328999       0.00002772      -0.00002622      -0.00000526       0.27341222
N       15.55722931      14.06755602      14.61346203       0.00003509      -0.00003091       0.00014171      -0.10081442
N       15.13337028      14.42041571      13.47046350       0.00005550      -0.00006076      -0.00013473       0.01984211
N       14.26436503      15.16376952      13.07541058      -0.00009554       0.00019200      -0.00004764       0.29399194
