20
Properties=species:S:1:pos:R:3:forces:R:3:charge:R:1 N20=T charge=0 mult=1 PG=Ih |=T Becke3LYP/6-31G*=T src:=T GS=T Fig.7=T (27,=T Ih)=T energy=-1573.290855433607 free_energy=-1573.290855433607 dipole="-6.286300539041335e-15 -7.443930034208961e-15 -3.4354338693499254e-14" pbc="F F F"
N       -1.15456967      -1.15456967      -1.15456967       0.00009786       0.00009786       0.00009786      -0.00000000
N       -1.15456967      -1.15456967       1.15456967       0.00009786       0.00009786      -0.00009786      -0.00000000
N       -1.15456967       1.15456967      -1.15456967       0.00009786      -0.00009786       0.00009786      -0.00000000
N       -1.15456967       1.15456967       1.15456967       0.00009786      -0.00009786      -0.00009786      -0.00000000
N        1.15456967      -1.15456967      -1.15456967      -0.00009786       0.00009786       0.00009786      -0.00000000
N        1.15456967      -1.15456967       1.15456967      -0.00009786       0.00009786      -0.00009786      -0.00000000
N        1.15456967       1.15456967      -1.15456967      -0.00009786      -0.00009786       0.00009786      -0.00000000
N        1.15456967       1.15456967       1.15456967      -0.00009786      -0.00009786      -0.00009786      -0.00000000
N        0.00000000      -0.71356329      -1.86813294      -0.00000000       0.00006018       0.00015757       0.00000000
N       -0.71356329      -1.86813294      -0.00000000       0.00006018       0.00015757      -0.00000000       0.00000000
N       -1.86813294      -0.00000000      -0.71356329       0.00015757       0.00000000       0.00006018       0.00000000
N       -0.00000000      -0.71356329       1.86813294       0.00000000       0.00006018      -0.00015757       0.00000000
N       -0.71356329       1.86813294       0.00000000       0.00006018      -0.00015757      -0.00000000       0.00000000
N        1.86813294       0.00000000      -0.71356329      -0.00015757       0.00000000       0.00006018       0.00000000
N        0.00000000       0.71356329      -1.86813294      -0.00000000      -0.00006018       0.00015757       0.00000000
N        0.71356329      -1.86813294      -0.00000000      -0.00006018       0.00015757       0.00000000       0.00000000
N       -1.86813294      -0.00000000       0.71356329       0.00015757       0.00000000      -0.00006018       0.00000000
N       -0.00000000       0.71356329       1.86813294       0.00000000      -0.00006018      -0.00015757       0.00000000
N        0.71356329       1.86813294      -0.00000000      -0.00006018      -0.00015757      -0.00000000       0.00000000
N        1.86813294       0.00000000       0.71356329      -0.00015757      -0.00000000      -0.00006018       0.00000000
