8
Properties=species:S:1:pos:R:3:forces:R:3:charge:R:1 formula=N8 topology=ring-7-substituted n_edges=8 n_rings=1 ff_energy=18.7185 mace_energy_eV=-11920.37062 delta_E_eV_atom=0.31635022809018665 sg=P1 energy=-631.3464651997647 free_energy=-631.3464651997647 dipole="0.0964335485632372 0.032440104629625904 0.03372483532928394" pbc="F F F"
N       13.19791423      14.91613642      14.80890181      -0.00013888      -0.00017064       0.00002179       0.30183258
N       16.79819249      14.71925185      14.08008767      -0.00001750      -0.00018876      -0.00019291       0.29421637
N       14.37175012      15.10714363      14.93165573       0.00005611       0.00013440      -0.00009748      -0.11859791
N       14.97437722      15.84141894      15.89278620       0.00004214      -0.00005488       0.00006687      -0.04003808
N       16.89336228      14.07749027      13.16201374       0.00007990       0.00007418       0.00017308      -0.17804332
N       17.00862923      15.41641463      15.03812275      -0.00004325       0.00007453      -0.00008179      -0.06747088
N       16.19025585      15.96387590      15.91345364      -0.00001714       0.00004721       0.00009931      -0.01277902
N       12.17328723      14.59287615      14.48083044       0.00003863       0.00008396       0.00001113      -0.17911974
