9
Properties=species:S:1:pos:R:3:forces:R:3:charge:R:1 formula=N9 topology=bicyclic-5-6 n_edges=10 n_rings=2 ff_energy=478.1024 mace_energy_eV=-13411.26362 delta_E_eV_atom=0.22227544416000455 sg=P1 energy=-706.9300025323286 free_energy=-706.9300025323286 dipole="9.19828109426422e-05 -0.010176534714833943 0.16520765376952667" pbc="F F F"
N       14.18261147      13.54375066      16.36424778      -0.00010167      -0.00010927       0.00036694       0.21578698
N       14.46124205      14.10048225      14.08232581       0.00005694       0.00002410      -0.00036741      -0.04249453
N       14.07765057      13.58518758      13.18607356      -0.00002446       0.00001762       0.00024241      -0.00658191
N       14.85687945      14.51820984      16.81047921      -0.00024440      -0.00026094      -0.00024442      -0.05433738
N       16.10629474      16.57150203      13.69525002       0.00014176       0.00012862       0.00005463      -0.02214492
N       16.66939243      17.43242298      13.29820405      -0.00009054      -0.00005831      -0.00010674      -0.01827101
N       15.41766484      15.39264236      16.16137568       0.00020236       0.00018561       0.00004005       0.26716171
N       13.57189315      12.61787911      16.65063102       0.00008279       0.00006670      -0.00003667      -0.17552755
N       16.04013190      16.32894991      15.98758563      -0.00002278       0.00000587       0.00005122      -0.16359138
