9
Properties=species:S:1:pos:R:3:forces:R:3:charge:R:1 formula=N9 topology=bicyclic-4-4-4 n_edges=11 n_rings=3 ff_energy=232.4543 mace_energy_eV=-13407.688349 delta_E_eV_atom=0.6195278591148963 sg=P1 energy=-704.5697113313652 free_energy=-704.5697113313652 dipole="0.18738106157955828 -0.04336823605695847 -0.14829202555004203" pbc="F F F"
N       16.19733594      14.71392453      13.85265965      -0.00010457      -0.00004300       0.00007737       0.08617418
N       15.83943839      16.03100202      14.15843326       0.00018895       0.00006538       0.00006542      -0.01650444
N       14.73815148      13.97936871      12.81765380       0.00006690      -0.00002876      -0.00008184      -0.02457104
N       15.17199388      13.77054425      13.97514400       0.00003896       0.00010682       0.00003661      -0.01647659
N       14.62748646      14.86579911      17.70289450       0.00002023      -0.00015087       0.00035642      -0.18692847
N       15.69507630      14.97009958      12.52233383      -0.00002684      -0.00003327      -0.00016605       0.05787322
N       14.40801754      15.02039099      16.59195097       0.00000511       0.00012825      -0.00013352       0.35359495
N       14.16449159      15.18265598      15.47438231      -0.00002776       0.00005895      -0.00023332      -0.22857646
N       15.41273090      16.26385960      13.00287170      -0.00016098      -0.00010349       0.00007893      -0.02458534
