8
Properties=species:S:1:pos:R:3:forces:R:3:charge:R:1 formula=N8 topology=bicyclic-4-5-5 n_edges=10 n_rings=3 ff_energy=193.4601 mace_energy_eV=-25056.013529 delta_E_eV_atom=-1641.6390133590212 sg=P1 energy=-628.7200372692014 free_energy=-628.7200372692014 dipole="0.3564151032027306 -0.4714011952805633 0.3734764801218553" pbc="F F F"
N       14.59358292      15.58585206      12.83253643      -0.00006934       0.00005387       0.00015111      -0.14976333
N       15.33989354      14.35329108      16.63251819      -0.00012340       0.00012835       0.00032549       0.31230281
N       15.74678121      14.02957269      14.42164860      -0.00001339       0.00003098       0.00006983      -0.05700020
N       13.90370318      16.38161933      13.54453899       0.00001834       0.00006215      -0.00018454      -0.00224466
N       15.00156611      14.97973160      14.07894242       0.00001282      -0.00007729      -0.00005772       0.28407570
N       14.25755579      15.84463855      14.76478587       0.00000336      -0.00004877       0.00013908      -0.27813284
N       15.85202528      13.79699374      15.67939631       0.00018519      -0.00016012      -0.00016056      -0.01139597
N       15.04878526      14.62850929      17.67832222      -0.00001358       0.00001083      -0.00028269      -0.09784152
