9
Properties=species:S:1:pos:R:3:forces:R:3:charge:R:1 formula=N9 topology=ring-5-substituted n_edges=9 n_rings=1 ff_energy=44.4124 mace_energy_eV=-13410.876011 delta_E_eV_atom=0.2653430965451662 sg=P1 energy=-709.4379648859123 free_energy=-709.4379648859123 dipole="0.10856421722097398 0.040366116203650666 -0.011584782183727866" pbc="F F F"
N       13.77942281      16.93920778      14.05185975      -0.00006510      -0.00002467      -0.00002204      -0.17992316
N       14.67034906      14.09994098      15.44519748       0.00002209      -0.00005184       0.00011592      -0.09481685
N       12.88074928      12.65355045      15.56147562      -0.00004691      -0.00002538      -0.00000860      -0.17517867
N       14.84717668      16.63328706      14.25415237       0.00000428       0.00002543      -0.00000486       0.27584346
N       16.04232132      16.51057072      14.24926266      -0.00008123       0.00011087      -0.00008773      -0.03776648
N       16.91214332      15.91886038      15.02490667       0.00016384      -0.00005230       0.00010501      -0.05488466
N       13.78411661      13.32112446      15.65246796       0.00009355       0.00008661      -0.00000129       0.29385359
N       16.59984427      15.15235059      15.96954859      -0.00018892      -0.00019724       0.00005505       0.03691627
N       15.62238207      14.47610177      16.31370996       0.00009840       0.00012853      -0.00015144      -0.06404350
