4
Properties=species:S:1:pos:R:3:forces:R:3:charge:R:1 formula=N4 topology=ring-3-subst integrity=OK energy_eV=-5958.57029 delta_E_eV_atom=0.8469 sg=P1 energy=-311.35668222786876 free_energy=-311.35668222786876 dipole="0.12784590323721154 -0.05707536462956461 0.16715800949295212" pbc="F F F"
N       -0.19282795       0.08611863      -0.25211362      -0.00008447      -0.00002160      -0.00007579       0.37766824
N        0.60271963      -0.82123703       0.43537053       0.00005594      -0.00027021      -0.00010102      -0.05770897
N       -0.86508951       0.38629790      -1.13107002       0.00005902       0.00001149       0.00006384      -0.26225832
N        0.45519783       0.34882048       0.94781309      -0.00003050       0.00028032       0.00011297      -0.05770095
