7
Properties=species:S:1:pos:R:3:forces:R:3:charge:R:1 formula=N7 topology=branched-tree n_edges=6 n_rings=0 ff_energy=17.6566 mace_energy_eV=-10432.301548 delta_E_eV_atom=0.033885097405573106 sg=P1 energy=-550.0046493923862 free_energy=-550.0046493923862 dipole="0.019788722351055853 -0.06302264874493362 0.13996950125535748" pbc="F F F"
N       14.35379460      14.20459043      13.74199150      -0.00006361      -0.00014430      -0.00025458       0.20779168
N       15.11827469      15.07491936      16.90696761       0.00003957       0.00002160       0.00024229      -0.16949606
N       14.08290620      13.73232592      12.73164374       0.00003553       0.00012565       0.00015826      -0.18033552
N       14.85718754      14.73324199      15.85624696      -0.00009344      -0.00011617      -0.00043021       0.26796465
N       14.60785190      17.15861374      12.98650424      -0.00004945      -0.00002706       0.00020265      -0.01137150
N       14.56735731      13.94441483      14.96777258       0.00007999       0.00008634       0.00029123      -0.05757969
N       14.69098598      16.48037684      13.85445767       0.00005140       0.00005394      -0.00020963      -0.05697356
