7
 energy: -20.245141670418 gnorm: 0.000927588628 xtb: 6.6.1 (8d0f1dd)
N            1.19963392898051        0.10285055493541        0.05267183990036
N            0.32737644635082        1.15238823615548       -0.01192779787034
N           -0.81798174806438        0.61148544377224       -0.03112318500682
N           -0.72865892286545       -0.68516773860818        0.02132648527431
N            0.48711354289651       -1.05173913044764        0.05408176777454
N            2.46651852340004        0.18410592298496       -0.14031391752553
N            3.50335292808081        0.44052348180019        0.28159769086566
