9
Properties=species:S:1:pos:R:3:forces:R:3:charge:R:1 formula=N9 topology=bicyclic-3-3 n_edges=10 n_rings=2 ff_energy=500.2016 mace_energy_eV=-13410.284199 delta_E_eV_atom=0.33110001395107247 sg=P1 energy=-709.3526377518438 free_energy=-709.3526377518438 dipole="-0.042615562847104514 -0.0730982818454108 0.012451090076625485" pbc="F F F"
N       14.63843842      13.92808066      16.19351646       0.00006433       0.00008065      -0.00014921      -0.04387846
N       14.57747107      13.58615973      13.98186031      -0.00006641      -0.00002236       0.00003348      -0.04388341
N       14.47600472      15.99272929      17.20493086      -0.00005841       0.00046708       0.00007252       0.27925050
N       15.19004827      13.73500495      12.85079756       0.00014638      -0.00001554      -0.00006334      -0.04228819
N       14.34498163      17.05625165      17.55632985       0.00005502      -0.00029149      -0.00007270      -0.18209477
N       14.62130590      14.80040425      17.15031031      -0.00003357      -0.00021556      -0.00000875      -0.04228240
N       17.19161194      14.43806453      11.94000949       0.00009901       0.00000451      -0.00004193      -0.18209113
N       14.90233937      14.26205520      15.00150954       0.00000006      -0.00005583       0.00016409      -0.02198566
N       16.27083741      14.14710744      12.52245037      -0.00020641       0.00004854       0.00006584       0.27925352
