6
Properties=species:S:1:pos:R:3:forces:R:3:charge:R:1 formula=N6 topology=chain integrity=OK energy_eV=-8936.443817 delta_E_eV_atom=1.0821 sg=P1 energy=-473.2966388895748 free_energy=-473.2966388895748 dipole="5.040806551036996e-05 2.709069895411336e-05 3.471670262798052e-06" pbc="F F F"
N        2.27784956       0.57116313       1.53023535       0.00009830       0.00006976       0.00000523      -0.19997899
N        1.37968796       0.36637806       0.88165045      -0.00017828      -0.00003775      -0.00016009       0.29144997
N        0.58585568       0.32875309      -0.00900848      -0.00004849      -0.00010834       0.00015126      -0.09146549
N       -0.58582183      -0.32868131       0.00895780       0.00001209       0.00004199      -0.00009845      -0.09145770
N       -1.37968128      -0.36637202      -0.88166985       0.00016353       0.00000571       0.00023987       0.29144827
N       -2.27789009      -0.57124095      -1.53016527      -0.00004715       0.00002863      -0.00013781      -0.19999606
