8
Properties=species:S:1:pos:R:3:forces:R:3:charge:R:1 formula=N8 topology=branched-tree n_edges=7 n_rings=0 ff_energy=15.1479 mace_energy_eV=-11919.732927 delta_E_eV_atom=0.3960618733663068 sg=P1 energy=-629.8865058861518 free_energy=-629.8865058861518 dipole="-0.02555484159644742 0.13405709376015998 -0.2782382444129019" pbc="F F F"
N       14.72903770      13.19357427      13.63856389       0.00007616      -0.00001826       0.00000604       0.32264945
N       14.69089421      14.36185478      13.87321719      -0.00027119       0.00010602       0.00013411      -0.17053835
N       14.66251588      18.21203659      16.16527845       0.00026126      -0.00003673      -0.00003576      -0.16990956
N       14.67071924      17.24660573      15.59708572       0.00002198       0.00009234       0.00006946       0.32265120
N       14.66235700      16.33626005      14.82728361      -0.00014587      -0.00020507       0.00001808      -0.17054268
N       14.75146427      14.95908830      15.15950191      -0.00015967       0.00015258      -0.00031212       0.37726173
N       14.84753530      14.45879653      16.19772856      -0.00004377      -0.00011967       0.00006178      -0.34166673
N       14.74966804      12.14864181      13.23525636       0.00026111       0.00002880       0.00005842      -0.16990506
