9
Properties=species:S:1:pos:R:3:forces:R:3:charge:R:1 formula=N9 topology=branched-tree n_edges=8 n_rings=0 ff_energy=16.3201 mace_energy_eV=-13410.650122 delta_E_eV_atom=0.2904419808512557 sg=P1 energy=-708.5621998082462 free_energy=-708.5621998082462 dipole="0.025907796840927328 0.033920178652256036 0.19169270490648796" pbc="F F F"
N       14.82427197      13.70621943      16.84120117       0.00009270       0.00001615      -0.00015173      -0.03172032
N       15.23618722      15.59228133      15.79825497      -0.00009213      -0.00033917       0.00010441      -0.03945817
N       15.35587017      14.28806456      15.79647162      -0.00018458      -0.00002216       0.00016800      -0.07537618
N       14.76356576      12.54021299      17.09580061       0.00002996       0.00023849      -0.00005201       0.28806134
N       14.48269595      14.15554968      13.06066570       0.00000979       0.00019789      -0.00025822      -0.03671911
N       14.42146750      13.44522451      13.90428164       0.00001737      -0.00013991       0.00030318      -0.02435819
N       15.59446275      16.37503272      14.96778995       0.00020679       0.00017872      -0.00019503       0.28003085
N       14.56721734      11.53761825      17.57929750      -0.00000487      -0.00007625       0.00000657      -0.18102013
N       15.81914309      17.31290556      14.37735839      -0.00007503      -0.00005376       0.00007482      -0.17944011
