10
Properties=species:S:1:pos:R:3:forces:R:3:charge:R:1 formula=N10 topology=bicyclic-3-5-6 n_edges=12 n_rings=3 ff_energy=265.6717 mace_energy_eV=-14900.286944 delta_E_eV_atom=0.33398331459193287 sg=P1 energy=-785.9935552699917 free_energy=-785.9935552699917 dipole="-0.0014077818304011225 0.0018955488937637147 -0.003446912790414404" pbc="F F F"
N       15.20000808      16.49899035      15.24655525       0.00024404       0.00016693      -0.00012165      -0.00474218
N       14.09524044      16.05566932      15.41087254      -0.00018295      -0.00023390       0.00002065      -0.00526318
N       14.62903522      14.27369558      14.19147755      -0.00030547      -0.00005381      -0.00005191      -0.00461612
N       13.56582562      15.22754541      14.36046973       0.00000582      -0.00006151       0.00006571       0.01096115
N       15.86314506      16.14973336      14.01890833      -0.00003605      -0.00004397       0.00004347       0.01086250
N       16.36837148      14.13975029      17.25894424       0.00016205      -0.00020706       0.00020103       0.00010614
N       13.76199239      16.07254240      13.21175385       0.00039115       0.00014933      -0.00015088      -0.00086396
N       14.86577299      16.51549688      13.04757702      -0.00044494      -0.00018590       0.00006533      -0.00084599
N       15.73379743      14.71700294      14.02713150       0.00018349       0.00023783       0.00013904      -0.00534280
N       15.37683309      13.67529450      17.34555165      -0.00001715       0.00023205      -0.00021080      -0.00025556
