7
Properties=species:S:1:pos:R:3:forces:R:3:charge:R:1 formula=N7 topology=chain n_edges=6 n_rings=0 ff_energy=8.3101 mace_energy_eV=-10429.762937 delta_E_eV_atom=0.3965438204925249 sg=P1 energy=-551.6282766312855 free_energy=-551.6282766312855 dipole="0.045514209818604975 0.012610804817671994 0.006143669683618266" pbc="F F F"
N       15.43413354      12.76284267      15.10352608       0.00010064       0.00048387      -0.00000479       0.27663392
N       14.51829482      14.82135906      14.91850829       0.00001238       0.00006694       0.00000963      -0.09837609
N       15.48742607      13.95558109      15.07953069       0.00002490      -0.00012558      -0.00002027      -0.03478455
N       15.67589886      11.65854385      15.16722234      -0.00005461      -0.00030522       0.00000650      -0.19266331
N       14.28134581      17.06759780      14.82527424      -0.00024122       0.00006549      -0.00003268       0.27663936
N       14.92208244      16.06678778      14.94303409       0.00000746      -0.00014004       0.00003926      -0.03479086
N       13.93897702      18.14407320      14.74801065       0.00015046      -0.00004548       0.00000234      -0.19265847
