7
Properties=species:S:1:pos:R:3:forces:R:3:charge:R:1 formula=N7 topology=bicyclic-3-4-5 n_edges=9 n_rings=3 ff_energy=410.3044 mace_energy_eV=-21210.44101 delta_E_eV_atom=-1539.700323656742 sg=P1 energy=-549.3370243909849 free_energy=-549.3370243909849 dipole="-0.5212387088639574 -0.33244127846450294 -0.1463327210521447" pbc="F F F"
N       15.16715567      15.35997020      15.27675085       0.00000112      -0.00001276      -0.00020479       0.25105634
N       15.45054597      16.63272601      15.83440725      -0.00016332       0.00005046      -0.00001893      -0.13149130
N       13.91796953      13.64188048      14.52253856      -0.00003702       0.00003504      -0.00030937       0.32064762
N       16.69125062      16.34321883      15.70952837      -0.00018143      -0.00010292       0.00004988      -0.04315338
N       16.45188098      15.08127087      15.15667193       0.00021935      -0.00009587      -0.00001685      -0.19156428
N       13.56629818      12.66613985      14.09475032       0.00000105       0.00005587       0.00020987      -0.12385404
N       14.05424130      14.73394055      15.00078221       0.00016024       0.00007018       0.00029019      -0.08164096
