6
Properties=species:S:1:pos:R:3:forces:R:3:charge:R:1 formula=N6 topology=ring-6 integrity=OK energy_eV=-8939.454848 delta_E_eV_atom=0.5803 sg=P1 energy=-472.2522157447197 free_energy=-472.2522157447197 dipole="4.610020627753984e-06 1.730972308219027e-05 2.5135731119385726e-06" pbc="F F F"
N        1.07786344       0.69986598       0.13713428       0.00008303      -0.00017628      -0.00016164      -0.04582641
N        0.05955659      -1.24212920      -0.35207888       0.00020381      -0.00016087      -0.00030350      -0.04583235
N       -1.00708281      -0.73808016       0.33380891      -0.00010130       0.00021332       0.00028871      -0.04583390
N        1.06269043      -0.50663964      -0.20083121       0.00014678       0.00000705       0.00016623       0.09165713
N       -0.13034424       1.28034084      -0.11887445       0.00012402       0.00027905       0.00008532      -0.04582388
N       -1.06268342       0.50664218       0.20084135      -0.00045635      -0.00016227      -0.00007512       0.09165941
