10
Properties=species:S:1:pos:R:3:forces:R:3:charge:R:1 formula=N10 topology=ring-3-substituted n_edges=10 n_rings=1 ff_energy=257.5226 mace_energy_eV=-14897.939725 delta_E_eV_atom=0.5687052228495304 sg=P1 energy=-787.4096629588022 free_energy=-787.4096629588022 dipole="0.2589901138460093 -0.09998597221634897 -0.06409355788652236" pbc="F F F"
N       17.19064191      14.72092750      14.11857295      -0.00027955      -0.00004664       0.00026012       0.30497609
N       15.39918138      13.48498257      14.73961114      -0.00001249       0.00002897      -0.00000341      -0.12167312
N       13.63385489      14.31433260      16.34443067      -0.00000657      -0.00001315       0.00001171      -0.03330735
N       14.40593594      13.52060544      15.46003771       0.00011103      -0.00000942       0.00000184       0.34501409
N       13.37131707      12.94450569      15.87488028       0.00003702       0.00004910      -0.00003979      -0.19389487
N       16.18465620      14.57879892      14.74814572       0.00004289      -0.00010797      -0.00009614      -0.08849806
N       12.15263649      16.05026752      16.16035040       0.00024911      -0.00022782      -0.00022021       0.31105768
N       18.13621335      15.11198956      13.65542320       0.00017291       0.00006709      -0.00014384      -0.17608517
N       11.41104740      16.85672104      16.39835065      -0.00021187       0.00024686       0.00013281      -0.19317103
N       12.91726524      15.28901156      15.65361395      -0.00010247       0.00001300       0.00009691      -0.15441825
