8
Properties=species:S:1:pos:R:3:forces:R:3:charge:R:1 formula=N8 topology=bicyclic-3-3 n_edges=9 n_rings=2 ff_energy=460.1165 mace_energy_eV=-11920.831075 delta_E_eV_atom=0.2587932963244839 sg=P1 energy=-624.9920183365185 free_energy=-624.9920183365185 dipole="0.10279389503061226 0.012419910285959922 -0.11687617799473882" pbc="F F F"
N       15.77163744      14.92913105      12.63941731       0.00005792      -0.00014972      -0.00000993       0.02093536
N       16.80164436      14.52704110      13.55985441      -0.00006965      -0.00030295       0.00017105      -0.04229170
N       15.83540476      14.39094872      14.68541147       0.00032857       0.00019289      -0.00024148       0.28443231
N       15.11704124      15.55580433      13.75508559      -0.00028849       0.00016972       0.00003217      -0.11061371
N       16.44769420      15.90366132      13.33759088      -0.00002496       0.00008308       0.00016849       0.02093868
N       13.15967563      15.12818621      16.24747683       0.00022987       0.00005597      -0.00029838      -0.00428903
N       12.71237200      14.76774291      17.18357044      -0.00023841      -0.00005778       0.00031071       0.00194968
N       15.65783228      13.82876509      15.64210613       0.00000515       0.00000880      -0.00013263      -0.17106159
