7
Properties=species:S:1:pos:R:3:forces:R:3:charge:R:1 formula=N7 topology=ring-3-substituted n_edges=7 n_rings=1 ff_energy=252.5287 mace_energy_eV=-10427.974491 delta_E_eV_atom=0.6520361603966194 sg=P1 energy=-551.5064871412675 free_energy=-551.5064871412675 dipole="-0.11860737035329265 -0.018321925784836386 0.05211065198629963" pbc="F F F"
N       15.33425325      16.31619115      15.33693880      -0.00003203      -0.00000711       0.00001290       0.25272040
N       15.42490334      13.46712811      14.54271206       0.00015813       0.00001093      -0.00008986       0.25271744
N       13.76673637      14.64279433      15.64849803      -0.00001254       0.00000440      -0.00000649      -0.07832033
N       14.37011894      13.64415107      15.09548210       0.00000468      -0.00006905       0.00021990      -0.03201807
N       16.18837368      17.02588690      15.11372360       0.00004503       0.00000744       0.00010160      -0.18155613
N       16.31575223      13.02668163      13.99919567      -0.00014814       0.00003053      -0.00003672      -0.18153623
N       14.30114017      15.81700923      15.70157252      -0.00001513       0.00002285      -0.00020133      -0.03200708
