7
Properties=species:S:1:pos:R:3:initial_charges:R:1:forces:R:3:charge:R:1 N7=T charge=1 mult=1 PG=C2v |=T B3LYP/aug-cc-pVDZ=T src:=T B=T p.37=T (B3LYP/aug-cc-pVDZ)=T -=T chaine=T en=T W=T energy=-538.6080702640368 free_energy=-538.6080702640368 dipole="3.1864247613403247 -0.5234046462309175 4.4604586814684694e-17" pbc="F F F"
N       -0.08127355       0.20207645       0.00000000       1.00000000       0.00014298       0.00002387      -0.00000000       0.04260792
N        1.01269989      -0.00536499      -0.00000000       0.00000000      -0.00035368      -0.00002940      -0.00000000       0.34796795
N        2.22367708       0.09967095      -0.00000000       0.00000000       0.00017755       0.00003653       0.00000000       0.06578803
N        3.11630900      -0.79669946      -0.00000000       0.00000000      -0.00006385      -0.00009253      -0.00000000       0.08728020
N        4.33024613      -0.44085494       0.00000000       0.00000000       0.00002348       0.00009823      -0.00000000       0.06578154
N        5.34104780      -1.11597237       0.00000000       0.00000000       0.00013032      -0.00004920      -0.00000000       0.34796606
N        6.39975365      -1.46086465       0.00000000       0.00000000      -0.00005680       0.00001250       0.00000000       0.04260829
