9
Properties=species:S:1:pos:R:3:initial_magmoms:R:1:forces:R:3:charge:R:1 N9=T charge=0 mult=2 PG=C2v |=T B3LYP/aug-cc-pVDZ=T src:=T B=T p.59=T (B3LYP/aug-cc-pVDZ)=T -=T chaine=T EEEE=T energy=-709.5230543520805 free_energy=-709.5230543520805 dipole="0.009091574560944688 0.023816685311009125 4.700845469787979e-16" pbc="F F F"
N       -0.01321097       0.50126508      -0.00000000       1.00000000       0.00000611       0.00015733      -0.00000000      -0.20330509
N        1.05645777       0.13593831      -0.00000000       0.00000000       0.00014786       0.00014969      -0.00000000       0.28398880
N        2.24595093       0.04632957       0.00000000       0.00000000      -0.00012520      -0.00034398       0.00000000      -0.06571584
N        2.98185610      -1.06007598      -0.00000000       0.00000000      -0.00013931      -0.00028052      -0.00000000      -0.05375776
N        4.21554565      -0.97990876       0.00000000       0.00000000      -0.00009323       0.00006881       0.00000000       0.07763603
N        5.06927297      -1.87411582       0.00000000       0.00000000       0.00021289       0.00036072       0.00000000      -0.05378653
N        6.35987513      -1.55780713      -0.00000000       0.00000000       0.00023407      -0.00009368      -0.00000000      -0.06570460
N        7.29621370      -2.29683688       0.00000000       0.00000000      -0.00047396      -0.00003137       0.00000000       0.28399324
N        8.33093272      -2.75182238       0.00000000       0.00000000       0.00023076       0.00001301       0.00000000      -0.20334825
