7
Properties=species:S:1:pos:R:3:forces:R:3:charge:R:1 formula=N7 topology=ring-4-substituted n_edges=7 n_rings=1 ff_energy=99.4896 mace_energy_eV=-10429.410619 delta_E_eV_atom=0.44687493350738805 sg=P1 energy=-551.6128804777788 free_energy=-551.6128804777788 dipole="-0.04158941935856929 -0.023335637725859296 0.10723702132817295" pbc="F F F"
N       14.05391338      15.21942388      15.14625644       0.00001355       0.00004800       0.00007489      -0.09007955
N       14.64305628      15.83417189      11.87911237       0.00003616       0.00002798      -0.00023316      -0.19012410
N       15.64761835      15.17602611      16.80710640      -0.00023204      -0.00000573      -0.00018736       0.26756453
N       14.55131756      15.10010063      16.31558357       0.00035321      -0.00001983       0.00007322      -0.01372937
N       14.88459271      15.49971697      14.14836305      -0.00010334      -0.00003162      -0.00023109      -0.07752074
N       14.61008913      15.64840153      12.99329359       0.00003078      -0.00003136       0.00049753       0.28415250
N       16.52421036      15.18428127      17.52283164      -0.00009833       0.00001255       0.00000598      -0.18026327
