7
Properties=species:S:1:pos:R:3:forces:R:3:charge:R:1 formula=N7 topology=bicyclic-3-4-4-4 n_edges=10 n_rings=4 ff_energy=452.0475 mace_energy_eV=-10425.099495 delta_E_eV_atom=1.0627498046376331 sg=P1 energy=-546.8009517952743 free_energy=-546.8009517952743 dipole="0.032027622063169156 0.3610685256534811 -0.07417803243772136" pbc="F F F"
N       15.18491506      16.28200719      15.18671874       0.00000707      -0.00030896       0.00036265      -0.05588544
N       14.86292102      13.07679598      15.03583041      -0.00021405       0.00006104       0.00004128      -0.05229878
N       14.57086684      16.74483821      13.92923639       0.00000939       0.00002434      -0.00016515       0.05069724
N       14.03328997      14.08795236      15.11401133       0.00025441       0.00002334       0.00000706      -0.05707604
N       15.75887518      16.62809360      13.87396589      -0.00002024       0.00003855      -0.00015607       0.05069543
N       15.06529632      14.95656042      15.41522220      -0.00014029       0.00000889      -0.00006040       0.12094691
N       15.87675504      13.90679070      15.02824122       0.00010373       0.00015280      -0.00002937      -0.05707933
