7
Properties=species:S:1:pos:R:3:forces:R:3:charge:R:1 formula=N7 topology=bicyclic-3-4 n_edges=8 n_rings=2 ff_energy=381.3188 mace_energy_eV=-10426.344764 delta_E_eV_atom=0.8848542189414275 sg=P1 energy=-546.7426127579856 free_energy=-546.7426127579856 dipole="-0.27840743875199 0.4204125485149669 0.05980681067535163" pbc="F F F"
N       15.33514594      15.02542982      15.05080553       0.00000436       0.00001702      -0.00003790       0.09594237
N       13.90053467      16.63447564      15.99230781       0.00001042       0.00001164      -0.00008175       0.05468650
N       15.75273036      14.22869624      14.01006163       0.00004398       0.00004827       0.00019201      -0.04905567
N       14.01543484      15.32026072      15.37893242       0.00004437      -0.00014054      -0.00001211      -0.04876429
N       16.20908184      14.27560710      15.80334321      -0.00007810       0.00005880      -0.00007951      -0.04909834
N       16.74816441      13.75813855      14.72437280      -0.00007855      -0.00000528      -0.00005411      -0.05840129
N       13.60507761      16.60411178      14.83127594       0.00005353       0.00001008       0.00007336       0.05469073
