8
Properties=species:S:1:pos:R:3:forces:R:3:charge:R:1 formula=N8 topology=bicyclic-3-4 n_edges=9 n_rings=2 ff_energy=293.7066 mace_energy_eV=-11921.107185 delta_E_eV_atom=0.22427954103818593 sg=P1 energy=-630.1952825510086 free_energy=-630.1952825510086 dipole="0.014599713396790653 -0.010883780576402095 0.010820130702979762" pbc="F F F"
N       14.45241872      16.29157267      16.43517102      -0.00002675      -0.00010445       0.00007871      -0.01224616
N       14.14733076      14.22522516      14.78826217       0.00002838      -0.00004987      -0.00020928      -0.08999583
N       12.71747499      14.25452376      12.98690933      -0.00023529       0.00005982      -0.00022409      -0.20188133
N       13.68017930      17.07146337      16.48203076       0.00004336       0.00009664      -0.00006800       0.00571451
N       16.78698566      13.68195499      16.79947858       0.00004862       0.00008554      -0.00005443      -0.19844538
N       15.33976693      13.64864183      15.01307277      -0.00029609       0.00004598      -0.00016436      -0.09138349
N       13.50991628      14.15250050      13.78188140       0.00028422      -0.00005281       0.00032574       0.28824351
N       15.99008732      13.76178385      16.00806434       0.00015355      -0.00008086       0.00031571       0.29999417
