7
Properties=species:S:1:pos:R:3:forces:R:3:charge:R:1 formula=N7 topology=bicyclic-3-3 n_edges=8 n_rings=2 ff_energy=458.4584 mace_energy_eV=-10427.886583 delta_E_eV_atom=0.664594371732619 sg=P1 energy=-547.5597811359183 free_energy=-547.5597811359183 dipole="-0.030841100279300416 -0.04432515895527854 0.16081132477528046" pbc="F F F"
N       15.75498998      14.30727217      13.23612394      -0.00006071       0.00017146      -0.00002394      -0.10365141
N       16.43731014      13.79347809      14.33354705       0.00005787      -0.00009039       0.00011319       0.00475882
N       15.18525694      13.25525643      13.94504342      -0.00002087      -0.00012919       0.00008973       0.00475678
N       14.72296378      15.18836475      15.34139604       0.00010742      -0.00025586      -0.00003962      -0.11054261
N       13.71796931      16.24731360      17.11326439       0.00006079      -0.00005714      -0.00009078      -0.16396277
N       15.28906694      13.96188846      15.21611672      -0.00004800       0.00026158      -0.00022908       0.05691557
N       14.22775058      15.62155957      16.33725507      -0.00009650       0.00009953       0.00018050       0.31172563
