6
Properties=species:S:1:pos:R:3:forces:R:3:charge:R:1 energy=-471.37587634176316 free_energy=-471.37587634176316 dipole="5.9436499671129246e-06 6.657436485542525e-06 2.3222517121565034e-15" pbc="F F F"
N        0.05664471      -0.05112216      -0.00000000       0.00006088       0.00006542      -0.00000000      -0.00000229
N        1.35154798      -0.01594128       0.00000000      -0.00006306      -0.00004565       0.00000000      -0.00000147
N        1.96853070       1.12306319      -0.00000000      -0.00000392      -0.00003488      -0.00000000       0.00000244
N        1.29061375       2.22689015      -0.00000000      -0.00000488       0.00006038      -0.00000000       0.00000235
N       -0.00428421       2.19171265       0.00000000      -0.00004150      -0.00005267       0.00000000       0.00000012
N       -0.62127051       1.05270462      -0.00000000       0.00005249       0.00000740      -0.00000000      -0.00000114
