6
Properties=species:S:1:pos:R:3:forces:R:3:charge:R:1 N6=T charge=0 mult=1 PG=C2h |=T CCSD(T)/cc-pVDZ=T src:=T B=T p.34=T (CCSD(T)/cc-pVDZ)=T -=T chaine=T plane=T energy=-473.29663889114045 free_energy=-473.29663889114045 dipole="1.2740851262510685e-06 2.7770241886268502e-05 -3.2695314768722257e-16" pbc="F F F"
N       -0.00565577       0.10039726       0.00000000      -0.00045404       0.00015484      -0.00000000      -0.19999105
N        1.10607073      -0.08222800      -0.00000000       0.00043755      -0.00009643       0.00000000       0.29145395
N        2.29368198       0.03790317      -0.00000000       0.00003817      -0.00017749       0.00000000      -0.09146027
N        3.18584227      -0.96679799      -0.00000000       0.00005040       0.00006503      -0.00000000      -0.09146297
N        4.37345877      -0.84672779      -0.00000000      -0.00013230       0.00003914       0.00000000       0.29144903
N        5.48517301      -1.02944966      -0.00000000       0.00006020       0.00001491      -0.00000000      -0.19998868
