4
Properties=species:S:1:pos:R:3:forces:R:3:charge:R:1 formula=N4 topology=chain integrity=OK energy_eV=-5956.471284 delta_E_eV_atom=1.3716 sg=P1 energy=-313.70723825607223 free_energy=-313.70723825607223 dipole="0.0006834973640515425 0.0004355829531766296 -0.0005914403110535495" pbc="F F F"
N        0.30010544       0.48540222       1.52186136      -0.00030276      -0.00021401       0.00001451      -0.00174567
N        1.18596530       1.01643514       1.14853781       0.00032005       0.00024016      -0.00003676       0.00159105
N       -0.42698058      -1.19425426      -1.26382798      -0.00012151       0.00006805      -0.00003770       0.00000279
N       -1.05909015      -0.30758310      -1.40657119       0.00010421      -0.00009421       0.00005995       0.00015184
