7
Properties=species:S:1:pos:R:3:forces:R:3:charge:R:1 formula=N7 topology=ring-6-substituted n_edges=7 n_rings=1 ff_energy=17.3491 mace_energy_eV=-10428.800685 delta_E_eV_atom=0.5340084783440489 sg=P1 energy=-551.5064871946925 free_energy=-551.5064871946925 dipole="-0.09285389923897258 -0.006057848584650857 0.0920764505018742" pbc="F F F"
N       13.90571066      14.95183581      16.36309579      -0.00011104      -0.00005824       0.00023247      -0.07831564
N       17.10251244      13.92204351      15.62183764      -0.00008954      -0.00003642       0.00002833      -0.18155626
N       13.67072172      15.60922510      15.27691792      -0.00007005      -0.00001789      -0.00018520      -0.03199572
N       15.03107405      14.35239458      16.56657525      -0.00000863       0.00003531       0.00014522      -0.03200423
N       14.59865696      16.23478373      13.24807524      -0.00003364      -0.00002529       0.00015551      -0.18156969
N       14.27596482      15.85782945      14.26630697       0.00007334       0.00012984      -0.00022373       0.25272118
N       16.05970282      14.21011379      15.95736759       0.00023956      -0.00002731      -0.00015260       0.25272037
