3
Properties=species:S:1:pos:R:3:initial_charges:R:1:forces:R:3:charge:R:1 N3=T charge=-1 mult=1 PG=C2v |=T B3LYP/aug-cc-pVDZ=T src:=T B=T p.13=T (B3LYP/aug-cc-pVDZ)=T energy=-238.95878968558895 free_energy=-238.95878968558895 dipole="-0.6521473225428279 -0.585872795651901 1.774141648874936e-17" pbc="F F F"
N        0.02697264       0.04890419      -0.00000000      -1.00000000       0.00006690      -0.00004179      -0.00000000      -0.43568891
N        1.31346377      -0.01757707       0.00000000       0.00000000      -0.00008569      -0.00007901       0.00000000      -0.12861330
N        1.12976760       1.25746387       0.00000000       0.00000000       0.00001879       0.00012080      -0.00000000      -0.43569780
