8
 energy: -23.186804083031 gnorm: 0.000821687788 xtb: 6.6.1 (8d0f1dd)
N            0.49366245486670        0.65906954269126       -0.00008460797206
N            1.52225983013324        1.35414012657734       -0.00067292868468
N            2.73728396323168        1.35363240070619        0.00067304078685
N            3.76588473176439        0.65887252955508        0.00008441926886
N            0.49410927337558       -0.65887592414410        0.00008311134896
N            1.52272488337998       -1.35364150885376        0.00067952694434
N            2.73774251218924       -1.35411956588917       -0.00068168231771
N            3.76633368249740       -0.65907790082250       -0.00008088189644
