5
Properties=species:S:1:pos:R:3:forces:R:3:charge:R:1 formula=N5 topology=ring-3-substituted n_edges=5 n_rings=1 ff_energy=249.2921 mace_energy_eV=-7449.736902 delta_E_eV_atom=0.41529729132321336 sg=P1 energy=-393.05197053072044 free_energy=-393.05197053072044 dipole="-0.022211682691956933 0.01842524317391071 -0.04635558164647679" pbc="F F F"
N       14.49172749      15.62203054      15.67726695       0.00000700      -0.00000328      -0.00015177       0.20989670
N       15.68111590      14.12415088      14.52274159       0.00016842      -0.00019925      -0.00014209       0.20968137
N       15.30976464      14.68814790      15.57021013      -0.00000365       0.00005268       0.00017763      -0.05787524
N       13.91830786      16.35911056      16.34004963      -0.00007175       0.00006144       0.00010531      -0.18085496
N       16.32399820      13.32962733      14.00611231      -0.00010001       0.00008841       0.00001093      -0.18084786
