7
Properties=species:S:1:pos:R:3:forces:R:3:charge:R:1 formula=N7 topology=branched-tree n_edges=6 n_rings=0 ff_energy=17.4047 mace_energy_eV=-10429.109576 delta_E_eV_atom=0.4898811756654595 sg=P1 energy=-551.5064871134615 free_energy=-551.5064871134615 dipole="0.06087661559172579 0.11623038979662145 -0.0016612502657973015" pbc="F F F"
N       15.75627626      16.20202219      15.15729518      -0.00009227      -0.00004053       0.00008583      -0.07828826
N       15.66598289      13.13335934      13.60660201       0.00006031      -0.00007958      -0.00012569      -0.18161819
N       16.10685506      15.29845001      14.30416935      -0.00011936      -0.00013666       0.00007698      -0.03196135
N       14.09028813      15.08156850      16.30776730       0.00027956       0.00038458      -0.00014362       0.25273328
N       13.30449846      14.41294520      16.77521045      -0.00007154      -0.00015542       0.00005361      -0.18166346
N       14.82382870      15.99362611      16.02578322      -0.00004361      -0.00017203      -0.00007612      -0.03193299
N       15.77261094      14.17002488      14.05042000      -0.00001309       0.00019965       0.00012901       0.25273098
