7
Properties=species:S:1:pos:R:3:initial_magmoms:R:1:forces:R:3:charge:R:1 N7=T charge=0 mult=2 PG=C2 |=T B3LYP/aug-cc-pVDZ=T src:=T B=T p.39=T (B3LYP/aug-cc-pVDZ)=T -=T chaine=T ZZ=T energy=-551.6282766608279 free_energy=-551.6282766608279 dipole="0.009198740707881365 0.04676974016476967 1.2098840941991197e-15" pbc="F F F"
N        0.07331639       0.13268812      -0.00000000       1.00000000       0.00026267      -0.00001079       0.00000000      -0.19269344
N        1.19329602      -0.03357168      -0.00000000       0.00000000      -0.00036729      -0.00003566      -0.00000000       0.27663252
N        2.37956363       0.10351536       0.00000000       0.00000000       0.00012073       0.00015132       0.00000000      -0.03476474
N        3.31560134      -0.81220221      -0.00000000       0.00000000      -0.00016268      -0.00017403      -0.00000000      -0.09835246
N        4.52839072      -0.31839249       0.00000000       0.00000000       0.00008694       0.00010406       0.00000000      -0.03476686
N        5.57474385      -0.89386849      -0.00000000       0.00000000       0.00013365      -0.00014373       0.00000000       0.27663499
N        6.67442805      -1.16347360      -0.00000000       0.00000000      -0.00007402       0.00010882      -0.00000000      -0.19269002
