8
Properties=species:S:1:pos:R:3:forces:R:3:charge:R:1 formula=N8 topology=bicyclic-3-4-4 n_edges=10 n_rings=3 ff_energy=388.1179 mace_energy_eV=-11921.664991 delta_E_eV_atom=0.15455379085938148 sg=P1 energy=-631.8654177730053 free_energy=-631.8654177730053 dipole="-0.046650580596385646 -0.4608187875566128 -0.3898329587321344" pbc="F F F"
N       16.40407310      16.38135441      16.46169598      -0.00002908       0.00003082       0.00007497      -0.05543829
N       15.74625768      13.92943676      14.29664537      -0.00008254      -0.00002903      -0.00011823      -0.11569519
N       14.06871651      12.91560188      13.08865552       0.00006082      -0.00004677      -0.00002021      -0.13028941
N       15.11079822      16.53849593      16.30403774      -0.00004702      -0.00007239      -0.00010131      -0.04998957
N       14.66466043      15.66887296      15.48891666       0.00001045       0.00000032       0.00000168      -0.14907244
N       15.73165234      14.95662246      15.13924477      -0.00011990       0.00007289      -0.00004195       0.28474827
N       14.79313449      13.48611286      13.71957418      -0.00000241       0.00011571       0.00018166       0.33000781
N       16.81066027      15.40584510      15.74865503       0.00020967      -0.00007156       0.00002340      -0.11427117
