3
Properties=species:S:1:pos:R:3:initial_charges:R:1:forces:R:3:charge:R:1 energy=-108.9319660834724 free_energy=-108.9319660834724 dipole="-0.04683781854563385 -0.0009226051154063929 -0.10873769051121988" pbc="F F F"
N        0.01908042       0.00030595      -0.02015828      -1.00000000       0.00001845       0.00000022       0.00004607      -0.80991630
H        0.67120394      -0.00327517      -0.84585783       0.00000000       0.00006388      -0.00000013      -0.00003401      -0.09504105
H       -0.91511749      -0.00237907      -0.50422921       0.00000000      -0.00008233      -0.00000010      -0.00001207      -0.09504265
