3
Properties=species:S:1:pos:R:3:initial_charges:R:1:forces:R:3:charge:R:1 energy=-108.93196608353246 free_energy=-108.93196608353246 dipole="8.004751854620391e-16 -2.879299057178617e-17 -0.15570405505286866" pbc="F F F"
N       -0.00000000       0.00000000       0.02384969      -1.00000000       0.00000000       0.00000000       0.00003018      -0.80991894
H        0.81134691      -0.00000000      -0.64605616       0.00000000       0.00004603      -0.00000000      -0.00001509      -0.09504053
H       -0.81134691       0.00000000      -0.64605616       0.00000000      -0.00004603       0.00000000      -0.00001509      -0.09504053
