4
Properties=species:S:1:pos:R:3:initial_charges:R:1:initial_magmoms:R:1:forces:R:3:charge:R:1 N4=T charge=1 mult=2 PG=D2h |=T B3LYP/aug-cc-pVDZ=T src:=T B=T p.16=T (B3LYP/aug-cc-pVDZ)=T energy=-294.4723458027335 free_energy=-294.4723458027335 dipole="0.8157000000018064 0.6042494580762965 -1.7778956121902983e-15" pbc="F F F"
N        0.04589981       0.00662370      -0.00000000       1.00000000       1.00000000       0.00011159       0.00040857       0.00000000       0.24999582
N        1.58550022       0.00662368       0.00000000       0.00000000       0.00000000      -0.00013762       0.00042658      -0.00000000       0.25000463
N        1.58550019       1.20187630       0.00000000       0.00000000       0.00000000      -0.00011138      -0.00040857      -0.00000000       0.24999537
N        0.04589978       1.20187632       0.00000000       0.00000000       0.00000000       0.00013740      -0.00042658      -0.00000000       0.25000418
