10
 energy: -28.994405957473 gnorm: 0.000632750663 xtb: 6.6.1 (8d0f1dd)
N            1.79560264782471        0.76639344282219        1.23865309825543
N           -2.66124290845404       -1.25337945826370        0.49754464167310
N            1.95422740930110       -0.37655348155419        0.91123871431345
N            1.82105614784663        1.77564265563843        1.73476523091920
N           -2.20328166733292       -0.42826392939954       -0.11470594820601
N            1.47454145907141       -1.10201568341464       -0.09217510811227
N            0.21838459289121        0.48125278577879       -1.19682625434840
N           -1.97790292523317        0.55253165641814       -0.76782720607247
N            0.60852502406768       -0.67256803550044       -0.85332744468839
N           -0.88015970094609        1.01151171099182       -1.35762501367926
