4
Properties=species:S:1:pos:R:3:initial_charges:R:1:initial_magmoms:R:1:forces:R:3:charge:R:1 N4=T charge=-1 mult=4 PG=C2h |=T B3LYP/aug-cc-pVDZ=T src:=T B=T p.23=T (B3LYP/aug-cc-pVDZ,=T 4Bg,=T planar)=T energy=-317.19399743235294 free_energy=-317.19399743235294 dipole="-1.5994813503806018 -0.575257663294062 3.1029997838284953e-16" pbc="F F F"
N       -0.01183174      -0.02310493      -0.00000000      -1.00000000       3.00000000       0.00017771       0.00000169      -0.00000000      -0.44075898
N        1.22295134       0.03854510      -0.00000000       0.00000000       0.00000000      -0.00005887       0.00021086      -0.00000000      -0.05923767
N        1.97597762       1.11196452       0.00000000       0.00000000       0.00000000      -0.00020820      -0.00025009       0.00000000      -0.05923158
N        3.21075678       1.17361331      -0.00000000       0.00000000       0.00000000       0.00008936       0.00003754       0.00000000      -0.44077177
