7
Properties=species:S:1:pos:R:3:forces:R:3:charge:R:1 formula=N7 topology=bicyclic-3-5 n_edges=8 n_rings=2 ff_energy=267.2213 mace_energy_eV=-10428.26788 delta_E_eV_atom=0.610123426684595 sg=P1 energy=-550.1768210041249 free_energy=-550.1768210041249 dipole="-0.042090515173580687 0.10007297246652717 -0.1227507402826243" pbc="F F F"
N       15.78360141      14.05527156      16.58032034      -0.00005228       0.00003250      -0.00005416      -0.19965205
N       16.06159456      14.82195943      14.37619555      -0.00027310       0.00006100      -0.00017053      -0.09706263
N       15.34266051      15.14906210      13.45400143       0.00018790      -0.00010873       0.00012540       0.08545407
N       13.89556295      16.07831395      14.70754158       0.00001783      -0.00000435       0.00006774       0.08540454
N       14.49419574      15.82839121      15.73397517      -0.00002137      -0.00012462      -0.00011014      -0.09701080
N       15.49795395      14.77222771      15.71920731       0.00009706       0.00010410       0.00008047       0.31979767
N       14.14445316      15.64288648      13.51117255       0.00004396       0.00004009       0.00006122      -0.09693081
