6
Properties=species:S:1:pos:R:3:forces:R:3:charge:R:1 formula=N6 topology=bicyclic-3-3 n_edges=7 n_rings=2 ff_energy=456.7936 mace_energy_eV=-8939.844312 delta_E_eV_atom=0.3886256373602919 sg=P1 energy=-468.11150827107963 free_energy=-468.11150827107963 dipole="0.14886710352699256 0.00847915715822021 -0.017954563593332685" pbc="F F F"
N       15.84334199      16.28893841      15.21850210       0.00004842      -0.00004514       0.00017720       0.02151399
N       16.01003467      15.25673230      16.11313991       0.00001095       0.00018734      -0.00002424       0.02151398
N       16.07035268      14.96385715      14.70567822       0.00016618      -0.00001233      -0.00004515      -0.03654984
N       14.68292285      15.76055318      15.88339382       0.00001826      -0.00023399      -0.00027336      -0.12789509
N       14.62493193      14.65963236      14.62398972      -0.00006585       0.00023218       0.00028020       0.28040950
N       13.86930160      14.04891905      14.06015943      -0.00017796      -0.00012805      -0.00011466      -0.15899254
