10
Properties=species:S:1:pos:R:3:forces:R:3:charge:R:1 formula=N10 topology=bicyclic-3-5-7 n_edges=12 n_rings=3 ff_energy=270.2045 mace_energy_eV=-14899.070407 delta_E_eV_atom=0.45563700273896757 sg=P1 energy=-788.815203329853 free_energy=-788.815203329853 dipole="-0.41246918154721 0.39705516822107484 0.21387298092563745" pbc="F F F"
N       15.67542580      16.64982780      13.51193356       0.00006957      -0.00047282       0.00009471      -0.02863398
N       15.73956600      14.63997468      15.70417808      -0.00007007      -0.00005813       0.00006182       0.29140011
N       16.63112583      13.40954993      14.31200738       0.00015233       0.00016595      -0.00009762      -0.05474103
N       15.62540259      14.17676220      14.46360342       0.00005108      -0.00008354       0.00000519      -0.15183421
N       16.12963515      16.76101249      12.51827008      -0.00007679       0.00045838      -0.00006760       0.02426319
N       16.81143889      14.14609978      16.28831970       0.00002068       0.00020696      -0.00017454      -0.11627534
N       13.04294779      16.59631215      15.54287400      -0.00006250      -0.00012994       0.00003137      -0.13224701
N       17.34606387      13.38951268      15.41117057      -0.00021983      -0.00028362       0.00007457      -0.05642936
N       14.90814830      15.48289451      16.30368732       0.00022361       0.00007894       0.00039719      -0.11384490
N       13.95971360      16.00916802      15.79221784      -0.00008809       0.00011783      -0.00032509       0.33834254
