7
Properties=species:S:1:pos:R:3:forces:R:3:charge:R:1 formula=N7 topology=branched-tree n_edges=6 n_rings=0 ff_energy=12.6452 mace_energy_eV=-10432.319685 delta_E_eV_atom=0.031294189990831 sg=P1 energy=-549.8966432099223 free_energy=-549.8966432099223 dipole="0.04961710241678053 -0.020533023191789783 0.009740785094210553" pbc="F F F"
N       11.90907241      10.89371258      19.79112738      -0.00015425      -0.00016090       0.00007747      -0.18089587
N       10.04375207       7.04832004      21.25602783       0.00001612       0.00021594      -0.00011521      -0.18086559
N       10.59326558       7.98820574      20.90097785      -0.00003198      -0.00008410       0.00011452       0.20983889
N       11.51580996       9.88964139      20.17665482      -0.00015582      -0.00007929      -0.00005709       0.20977096
N       26.18597463      29.18302544       1.74019328       0.00012675      -0.00008359       0.00013624      -0.00000070
N       10.55165222       9.14552003      20.44075871       0.00032598       0.00010844      -0.00001979      -0.05784839
N       25.46743597      29.97749823       1.49811772      -0.00012682       0.00008350      -0.00013615       0.00000070
