10
Properties=species:S:1:pos:R:3:forces:R:3:charge:R:1 formula=N10 topology=ring-4-substituted n_edges=10 n_rings=1 ff_energy=112.6602 mace_energy_eV=-14900.79892 delta_E_eV_atom=0.28278572772023836 sg=P1 energy=-789.0338973073103 free_energy=-789.0338973073103 dipole="0.12899173989395296 -0.16511845958577828 -0.18960987709565277" pbc="F F F"
N       14.74662907      16.42526290      16.52270177       0.00020814      -0.00022013      -0.00008317      -0.11277787
N       16.17369552      15.03249752      15.51622710      -0.00004503       0.00020843       0.00025089       0.06888034
N       14.41070932      17.15904262      17.40205248      -0.00015751       0.00016961       0.00003024       0.29792439
N       15.33395828      13.56010683      12.57742461       0.00004544       0.00013795       0.00001673      -0.05658722
N       15.78329462      14.53369511      13.33236826       0.00007273       0.00003275       0.00015016      -0.05077277
N       15.60102932      14.47783648      14.57201313       0.00003743      -0.00000268      -0.00012871       0.01001037
N       15.90423585      15.70912200      16.49333415      -0.00013313      -0.00007507      -0.00025998      -0.06804856
N       14.75967723      12.52835589      12.78979789       0.00002095       0.00006330      -0.00004387       0.29058559
N       13.86521758      17.88609782      18.06658369       0.00009335      -0.00004963       0.00005893      -0.20136424
N       14.23444737      11.53832297      12.70188473      -0.00014236      -0.00026450       0.00000879      -0.17785002
