10
 energy: -29.257302389170 gnorm: 0.000365317331 xtb: 6.6.1 (8d0f1dd)
N            0.83497566730882       -0.00000041481798        0.00002981652097
N            0.08922372643067        1.07085078064587       -0.00007510199108
N           -1.13519077306841        0.66628800571937       -0.00002046545761
N           -1.13519058132160       -0.66628594427259        0.00005492696292
N            0.08922314733816       -1.07085107494455       -0.00000684511487
N            5.11079321418324        0.00000043715607       -0.00007060899006
N            4.35684765401877        1.06899868039845        0.00025088618132
N            3.13085404638095        0.66106119593641       -0.00023940442164
N            3.13085437748147       -0.66106111055432        0.00022745228287
N            4.35684823414242       -1.06899818635932       -0.00015181467761
