10
Properties=species:S:1:pos:R:3:forces:R:3:charge:R:1 N10=T charge=0 mult=1 PG=D2d |=T Becke3LYP/6-31G*=T src:=T GS=T Fig.6=T (21,=T D2d)=T energy=-790.0430203902914 free_energy=-790.0430203902914 dipole="-2.690771632599001e-14 -3.3603711199120016e-06 3.3603711393510643e-06" pbc="F F F"
N        0.11450047      -0.68793533       0.20737480       0.00002558       0.00001091      -0.00002728       0.22327647
N       -0.93592667       0.05070848      -0.14398474      -0.00010218      -0.00005986       0.00001781      -0.08598748
N       -1.80065004      -0.77446180      -0.54070029      -0.00010744       0.00019333      -0.00023467      -0.02565265
N       -1.32401283      -2.00531659      -0.44845716       0.00004159       0.00009026       0.00029670      -0.02565474
N       -0.15061114      -1.97727932       0.00802784       0.00012758      -0.00029260      -0.00011052      -0.08598161
N        1.26249953      -0.20737480       0.68793533      -0.00002558       0.00002728      -0.00001091       0.22327647
N        2.31292667       0.14398474      -0.05070848       0.00010218      -0.00001781       0.00005986      -0.08598748
N        3.17765004       0.54070029       0.77446180       0.00010744       0.00023467      -0.00019333      -0.02565265
N        2.70101283       0.44845716       2.00531659      -0.00004159      -0.00029670      -0.00009026      -0.02565474
N        1.52761114      -0.00802784       1.97727932      -0.00012758       0.00011052       0.00029260      -0.08598161
