7
Properties=species:S:1:pos:R:3:forces:R:3:charge:R:1 formula=N7 topology=bicyclic-3-3-4-5 n_edges=10 n_rings=4 ff_energy=875.2042 mace_energy_eV=-10430.462006 delta_E_eV_atom=0.29667691731151535 sg=P1 energy=-550.0046493826105 free_energy=-550.0046493826105 dipole="0.011017410769939891 0.1215026748969784 -0.09539807438613641" pbc="F F F"
N       14.93757606      15.77466632      13.89626595       0.00005946       0.00001309       0.00005563       0.26797187
N       14.27567756      12.35927532      15.33738353      -0.00005574      -0.00013801       0.00011165      -0.01139445
N       15.32477289      15.97432885      15.03900203      -0.00007114      -0.00002608      -0.00003211      -0.05758559
N       14.70708673      16.02120117      12.81228396      -0.00003224       0.00002799      -0.00011920      -0.16947393
N       15.34027269      15.14888558      16.00556872       0.00001220       0.00002548       0.00011544       0.20778789
N       14.45432488      13.34720098      14.87657700       0.00007069       0.00014061      -0.00011676      -0.05695328
N       15.61718530      15.02915201      17.11290775       0.00001677      -0.00004308      -0.00001465      -0.18035251
