6
Properties=species:S:1:pos:R:3:forces:R:3:charge:R:1 formula=N6 topology=ring-5-substituted n_edges=6 n_rings=1 ff_energy=32.7108 mace_energy_eV=-8939.809261 delta_E_eV_atom=0.39446752647586436 sg=P1 energy=-470.6695177965564 free_energy=-470.6695177965564 dipole="0.057669180725997776 0.002884989206749564 -0.15364898673440613" pbc="F F F"
N       14.72911969      14.97054544      15.33866321       0.00008718      -0.00000377      -0.00005563       0.32146299
N       14.94470521      13.87337586      14.48894164       0.00017211      -0.00022937       0.00007473      -0.10223915
N       15.11220604      16.09765322      14.59357400      -0.00011473       0.00022270      -0.00002442      -0.10223915
N       14.30729224      14.94944669      16.46246458      -0.00007089       0.00000506       0.00000345      -0.15948025
N       15.38690556      14.35835403      13.42611593      -0.00030322       0.00006800      -0.00009783       0.02124778
N       15.48438703      15.65339739      13.48702011       0.00022955      -0.00006262       0.00009969       0.02124779
