6
Properties=species:S:1:pos:R:3:forces:R:3:charge:R:1 formula=N6 topology=ring-4-substituted n_edges=6 n_rings=1 ff_energy=97.8494 mace_energy_eV=-8938.075518 delta_E_eV_atom=0.6834246394516867 sg=P-1 energy=-468.3391206315045 free_energy=-468.3391206315045 dipole="-0.00010149394160593818 -5.163920456104162e-06 -4.329390125040221e-05" pbc="F F F"
N       14.16695064      14.61891105      15.43367291       0.00012269      -0.00002469       0.00014188       0.40574753
N       14.84866909      14.14837355      14.32785971       0.00024704      -0.00001302       0.00014675      -0.19486574
N       14.47635846      15.85878407      14.90836693       0.00024134       0.00001341       0.00015564      -0.19486366
N       13.60906329      14.18580150      16.35198422      -0.00037484       0.00001939      -0.00029007      -0.21087920
N       15.15843019      15.38825019      13.80277013       0.00015065      -0.00000716       0.00013449       0.40574828
N       15.71687997      15.82136483      12.88480428      -0.00038688       0.00001208      -0.00028869      -0.21088721
