8
 energy: -23.220625059096 gnorm: 0.000838561326 xtb: 6.6.1 (8d0f1dd)
N            1.26563442870915        0.01295249971903        0.07058539604165
N            0.53384907416582        1.12236166854968        0.10844092304799
N           -0.66914406235340        0.71890639721262        0.00857096154123
N           -0.69421975179900       -0.58932739754739       -0.08786701189429
N            0.49470973314001       -1.04877718459422       -0.05156773115796
N            2.59066603814144       -0.05335689326876        0.14363117574417
N            3.33058547408954        0.88404485990124        0.25061376568046
N            4.19426747507135        1.58615773822300        0.34747336504089
