10
Properties=species:S:1:pos:R:3:forces:R:3:charge:R:1 formula=N10 topology=bicyclic-4-6 n_edges=11 n_rings=2 ff_energy=114.9297 mace_energy_eV=-14900.036828 delta_E_eV_atom=0.3589948602568711 sg=P1 energy=-788.2657868645829 free_energy=-788.2657868645829 dipole="-0.011151756329790572 0.12561410099729103 -0.02509596280364029" pbc="F F F"
N       13.97116332      16.63706035      17.19171372      -0.00007338      -0.00002800       0.00007040      -0.17765284
N       13.60322258      15.31321543      14.12678767      -0.00003269       0.00001604      -0.00002090      -0.01622905
N       16.49972215      16.75036587      14.90875117       0.00006058      -0.00003235      -0.00001024      -0.01141144
N       14.78361084      16.80887086      16.43479548       0.00008537       0.00004631      -0.00009036       0.30185776
N       15.57129752      17.29440887      15.66540686      -0.00006162       0.00002083       0.00004271      -0.06426071
N       16.74092219      15.55300543      14.85925844      -0.00008120      -0.00004627       0.00001978      -0.04403022
N       16.09967639      12.38759301      15.84876373      -0.00003883      -0.00012353       0.00000541      -0.18194570
N       16.03629803      14.67685829      15.61181399       0.00008325      -0.00003456      -0.00002782      -0.11897035
N       16.17375667      13.48999531      15.64350346       0.00002775       0.00019728      -0.00001449       0.29845929
N       13.29945491      14.58481401      13.36323755       0.00003077      -0.00001574       0.00002551       0.01418326
