2
Properties=species:S:1:pos:R:3:forces:R:3:charge:R:1 N2=T charge=0 mult=1 PG=Dinfh |=T CCSD(T)/aug-cc-pVTZ=T src:=T B=T p.7=T (CCSD(T)/aug-cc-pVTZ)=T energy=-156.84467185210727 free_energy=-156.84467185210727 dipole="-4.580693545474875e-12 2.854994270963345e-16 -6.008980988745805e-16" pbc="F F F"
N        0.00263981       0.00000000      -0.00000000       0.00003227      -0.00000000      -0.00000000       0.00000000
N        1.10086019      -0.00000000       0.00000000      -0.00003227       0.00000000       0.00000000      -0.00000000
