9
Properties=species:S:1:pos:R:3:forces:R:3:charge:R:1 formula=N9 topology=ring-6-substituted n_edges=9 n_rings=1 ff_energy=25.8088 mace_energy_eV=-13410.164763 delta_E_eV_atom=0.3443706982925505 sg=P1 energy=-709.0385530122658 free_energy=-709.0385530122658 dipole="-0.0873604396453736 0.3717286318072034 -0.10864400292494168" pbc="F F F"
N       15.29173657      14.89786221      14.64066269       0.00000205       0.00000110      -0.00003011       0.17818796
N       15.09078372      13.18001576      16.00643602       0.00001051      -0.00003543      -0.00004494       0.03264926
N       15.17686643      14.42187371      15.94930336       0.00001117      -0.00004438       0.00004210      -0.13012801
N       14.62950687      17.02437615      15.01246826       0.00014096      -0.00022784      -0.00010141       0.31034184
N       16.15018057      14.13355849      13.89605191       0.00001972       0.00002925      -0.00003324      -0.07190477
N       15.24924977      12.40350140      14.98354953       0.00004991       0.00010966       0.00000690      -0.09158600
N       14.18248876      17.96262199      15.43905606      -0.00012593       0.00016378       0.00000641      -0.14871748
N       16.06656195      12.90851203      14.07711492      -0.00009253      -0.00009224       0.00003544       0.00873383
N       15.15283485      16.17902194      14.34205953      -0.00001587       0.00009610       0.00011885      -0.08757663
