8
Properties=species:S:1:pos:R:3:forces:R:3:charge:R:1 formula=N8 topology=ring-4-subst integrity=OK energy_eV=-11918.260469 delta_E_eV_atom=0.7069 sg=P1 energy=-629.8865066983727 free_energy=-629.8865066983727 dipole="0.05976205336208894 0.08987741302298806 -0.2905035639858103" pbc="F F F"
N       -0.06948254      -0.10417871       0.33706470       0.00005810      -0.00000907      -0.00022786       0.37725359
N       -0.51695483      -0.66186940      -0.88917611       0.00003690       0.00012096       0.00018782      -0.17055833
N       -1.22853344      -1.61063605      -1.01123840      -0.00007650      -0.00017051      -0.00001650       0.32264550
N       -0.29260108      -0.43951606       1.42113423      -0.00000002       0.00002281      -0.00007374      -0.34166140
N        0.72581297       0.97626612      -0.12666579      -0.00001584      -0.00007192       0.00013739      -0.17055176
N       -1.87884521      -2.47130820      -1.31340577       0.00007439       0.00017007       0.00004527      -0.16988524
N        1.93789757       2.55923142       1.02826055      -0.00001107       0.00011387       0.00001293      -0.16989100
N        1.32270656       1.75201091       0.55402660      -0.00006594      -0.00017622      -0.00006531       0.32264865
