6
Properties=species:S:1:pos:R:3:forces:R:3:charge:R:1 formula=N6 topology=chain n_edges=5 n_rings=0 ff_energy=6.6524 mace_energy_eV=-8942.556953 delta_E_eV_atom=-0.06348117584843749 sg=P1 energy=-470.5597403640565 free_energy=-470.5597403640565 dipole="-0.0036707401140668966 -0.001053918390020261 -0.004093756656354243" pbc="F F F"
N       14.72834039      14.91975085      14.69884070      -0.00004659      -0.00025259       0.00015318       0.01016773
N       15.48166682      15.29166255      15.40608871       0.00005110       0.00029853      -0.00018638      -0.01017195
N       12.57791252      13.86452916      12.67425242      -0.00008128      -0.00003893      -0.00007731       0.00538110
N       17.62297192      15.76445880      17.91583031       0.00004785       0.00000935       0.00005718      -0.00086731
N       11.82274580      13.47840047      11.97659222       0.00007278       0.00003473       0.00006932      -0.00538098
N       17.76645972      16.68113665      17.32832464      -0.00004387      -0.00005109      -0.00001599       0.00087142
