9
Properties=species:S:1:pos:R:3:forces:R:3:charge:R:1 formula=N9 topology=bicyclic-5-5-5-5 n_edges=12 n_rings=4 ff_energy=638.0599 mace_energy_eV=-13412.07994 delta_E_eV_atom=0.13157320880645784 sg=P1 energy=-707.8331466361899 free_energy=-707.8331466361899 dipole="0.3364297483780215 -0.03774642507797246 0.25562499908037567" pbc="F F F"
N       16.14068376      12.30223174      13.69516918      -0.00009321      -0.00016129      -0.00015865       0.01765120
N       16.04725412      15.40233488      16.25754203      -0.00017112      -0.00018056      -0.00027458       0.19488823
N       16.12657129      13.00825622      14.53655455       0.00009614       0.00015854       0.00014823      -0.02470453
N       13.07864844      15.53351854      14.80970148       0.00034812       0.00002718       0.00016647      -0.03001077
N       15.07952816      15.39176208      14.12700085      -0.00021098       0.00025741       0.00015478      -0.13898064
N       13.85653857      15.39092039      13.78208488       0.00024219      -0.00010857       0.00024344      -0.03417483
N       13.74787375      15.63483274      15.88405739      -0.00029729       0.00009655      -0.00023598      -0.13728135
N       16.93459352      15.78365134      16.87178781       0.00013782       0.00017742       0.00014099      -0.07953484
N       15.05272431      15.56147667      15.48414020      -0.00005167      -0.00026667      -0.00018470       0.23214754
