9
 energy: -25.552306794459 gnorm: 0.000466923792 xtb: 6.6.1 (8d0f1dd)
N            1.31270775344262       -0.10345057641577        0.00059572108400
N            0.30724848525901        1.28042763653424        0.00091137308328
N           -0.81583142039897        0.73630605416074        0.00007711030585
N           -0.75085322229386       -0.54550242898295       -0.00183863858783
N            0.44819904497383       -1.00343740218191       -0.00038343303313
N            2.56171180336151        0.13353536683865        0.00255036031389
N            2.95174899834485        1.35224268877053       -0.00181220625162
N            2.19818767240406        2.38939628962102       -0.00242885412141
N            0.91862762314827        2.39508551071177        0.00232832353018
