9
Properties=species:S:1:pos:R:3:forces:R:3:charge:R:1 formula=N9 topology=bicyclic-4-6 n_edges=10 n_rings=2 ff_energy=113.2565 mace_energy_eV=-13407.149943 delta_E_eV_atom=0.6793507309369033 sg=P1 energy=-709.537830294787 free_energy=-709.537830294787 dipole="0.014315828964481943 0.02106373230346092 0.1135274240529197" pbc="F F F"
N       15.63942403      15.41427385      16.21519816       0.00000288       0.00013271      -0.00002742       0.03333072
N       16.57352104      16.06647562      12.67042427      -0.00009193      -0.00009301       0.00015454      -0.18636515
N       16.82184322      15.96164327      13.76506997       0.00009320       0.00017763       0.00010622       0.28375533
N       13.50239715      15.10980107      15.66493243      -0.00011346      -0.00004057      -0.00003972      -0.03772784
N       17.34993728      15.91088875      14.84209920       0.00003233      -0.00010706      -0.00012802      -0.06478811
N       11.52745618      14.18998251      14.91754141      -0.00033479      -0.00013533      -0.00020508      -0.18001308
N       12.57052562      14.52864203      15.19038001       0.00031206       0.00007555       0.00018452       0.28298322
N       14.77448119      14.99945208      15.38409485       0.00002218       0.00006476       0.00009946      -0.07902703
N       16.83543761      15.66581048      16.04234436       0.00007752      -0.00007468      -0.00014449      -0.05214806
