10
Properties=species:S:1:pos:R:3:forces:R:3:charge:R:1 formula=N10 topology=bicyclic-3-5 n_edges=11 n_rings=2 ff_energy=314.8237 mace_energy_eV=-14898.784454 delta_E_eV_atom=0.48423229408035695 sg=P1 energy=-785.4261425905868 free_energy=-785.4261425905868 dipole="0.16756034306115158 -0.11668631439329771 0.05339924067961438" pbc="F F F"
N       14.05337854      15.26488561      12.67319765      -0.00009864       0.00008645       0.00006275      -0.02941258
N       14.60850083      15.45232162      14.64745562      -0.00004353       0.00002106      -0.00004903       0.19950165
N       15.30100702      15.27351453      15.83724921      -0.00005433       0.00006123       0.00031932       0.29157044
N       13.19190451      16.07352582      13.28946453       0.00016648      -0.00014137      -0.00006966      -0.02879705
N       13.51399316      16.19463554      14.49845388       0.00018808      -0.00017268      -0.00014784      -0.07251474
N       16.69181071      14.80049655      15.50959548       0.00002797      -0.00005259       0.00006246      -0.08786442
N       14.92831147      14.87882147      13.48934816      -0.00026361       0.00021328       0.00007721      -0.07621370
N       17.00254450      13.67667044      16.24529860       0.00001641       0.00009115      -0.00001162       0.02828976
N       17.24436442      14.70132315      16.86774045      -0.00005063      -0.00005721      -0.00004409       0.00430885
N       15.00517396      15.51487428      16.93295434       0.00011179      -0.00004933      -0.00019952      -0.22886821
