9
Properties=species:S:1:pos:R:3:forces:R:3:charge:R:1 formula=N9 topology=ring-3-substituted n_edges=9 n_rings=1 ff_energy=287.001 mace_energy_eV=-13409.942136 delta_E_eV_atom=0.36910703917442333 sg=P1 energy=-706.9151386136626 free_energy=-706.9151386136626 dipole="-0.4367689719445674 0.20918242180516158 0.2350090706704755" pbc="F F F"
N       14.91886727      14.91412362      14.37440233       0.00001124      -0.00001926      -0.00002307       0.51990851
N       13.80053339      15.40761586      13.73028838       0.00006259       0.00021862      -0.00032550      -0.20773449
N       15.61421271      13.83750074      13.88332648       0.00004711       0.00015146      -0.00000528      -0.26074208
N       16.16618405      15.06001161      13.82058454      -0.00011004      -0.00011004       0.00004468      -0.26081528
N       13.75043869      16.54417799      11.72443216      -0.00004775       0.00001275      -0.00004944      -0.13081773
N       13.89051844      15.99706722      12.68723294       0.00001936      -0.00024454       0.00041106       0.33937221
N       14.70943927      15.05679405      15.73266429       0.00018156      -0.00025640       0.00020604      -0.20775632
N       15.39791950      13.61524485      17.39569528      -0.00006881       0.00006509      -0.00005964      -0.13078626
N       15.10522310      14.23507481      16.51474401      -0.00009525       0.00018232      -0.00019885       0.33937144
