7
 energy: -20.212287843780 gnorm: 0.000883514218 xtb: 6.6.1 (8d0f1dd)
N            1.32203645109354        2.25518482592351        0.47160984702048
N           -2.37683917028040       -0.24047804774629        0.63714999977491
N            0.42522917206874       -0.84898177070290       -0.49032426380484
N            1.05442753668687        1.20382481272205        0.13478940595096
N           -1.38257469625257        0.21636016302192        0.48668326324335
N            0.29248308789682       -1.92023745096185       -0.87885107873144
N            1.25491827141220        0.10123535105997       -0.35985205581369
