9
Properties=species:S:1:pos:R:3:forces:R:3:charge:R:1 formula=N9 topology=branched-tree n_edges=8 n_rings=0 ff_energy=26.2722 mace_energy_eV=-13412.567025 delta_E_eV_atom=0.07745266386427829 sg=P1 energy=-708.3488082638274 free_energy=-708.3488082638274 dipole="-0.2859308711304513 -0.3549829559162691 0.5084189581265482" pbc="F F F"
N       13.73090739      14.24715775      15.95075371       0.00021843       0.00035976       0.00020694      -0.06284516
N       16.61889656      17.03402591      13.30265278       0.00005043       0.00003273      -0.00002591      -0.25048794
N       15.39088475      16.81249551      17.37044169      -0.00012909      -0.00017395      -0.00009291      -0.15535040
N       14.95599881      15.94837337      16.78990917       0.00015563       0.00026017       0.00013311       0.29104751
N       13.08403170      12.62575081      14.45500486      -0.00008451      -0.00016925      -0.00012985      -0.15424477
N       14.89737866      15.63410117      13.91010466      -0.00017906      -0.00013848       0.00023880      -0.31340325
N       13.52091248      13.43871768      15.09310629       0.00012770       0.00006072      -0.00004393       0.32449898
N       14.78640100      15.04743299      16.02002022      -0.00022603      -0.00025771      -0.00031344      -0.00345691
N       15.76671384      16.33853713      13.61443926       0.00006650       0.00002602       0.00002719       0.32424194
