10
Properties=species:S:1:pos:R:3:forces:R:3:charge:R:1 formula=N10 topology=ring-5-substituted n_edges=10 n_rings=1 ff_energy=560.6024 mace_energy_eV=-14901.572692 delta_E_eV_atom=0.20540854717751245 sg=P1 energy=-784.4914230068229 free_energy=-784.4914230068229 dipole="-0.10876304626543254 -0.10452919628668011 0.022650315938932384" pbc="F F F"
N       16.11707497      16.12810522      15.11570935       0.00004186      -0.00000524      -0.00002016      -0.17061092
N       15.42557109      15.22935029      15.50773592       0.00003988       0.00000167       0.00000927       0.33392960
N       13.76521645      13.95094122      15.79971893       0.00001311      -0.00015354       0.00001646       0.01201282
N       16.18718398      12.49778631      12.62834121       0.00002928      -0.00006102      -0.00005931       0.02215409
N       14.75676722      13.49603669      16.51234081       0.00002742       0.00010023      -0.00003806       0.01638184
N       15.77979479      14.20221695      16.38932712      -0.00006266      -0.00003949       0.00002454      -0.09984760
N       14.07911776      14.98481994      15.17254691      -0.00005086       0.00008902      -0.00000354      -0.10276970
N       15.92808164      13.17277603      13.45430602      -0.00003008       0.00005908       0.00006218      -0.02079995
N       12.23373022      17.48683515      15.83442464      -0.00013673       0.00007694      -0.00005630       0.01725461
N       13.10113096      16.98026376      16.27795495       0.00012877      -0.00006765       0.00006493      -0.00770479
