7
Properties=species:S:1:pos:R:3:forces:R:3:charge:R:1 formula=N7 topology=ring-5-substituted n_edges=7 n_rings=1 ff_energy=34.8497 mace_energy_eV=-10430.504151 delta_E_eV_atom=0.29065614331670986 sg=P1 energy=-550.8996822528085 free_energy=-550.8996822528085 dipole="0.1764002469637463 0.35948025875784967 -0.0569974404932831" pbc="F F F"
N       15.86709207      16.26465172      14.78945451      -0.00006252      -0.00012368       0.00001785       0.17863272
N       15.06665516      13.06391971      15.05533137      -0.00002740       0.00004875      -0.00001820      -0.02948117
N       14.23606610      13.60438499      15.89345184       0.00000604       0.00002684      -0.00005191      -0.02948106
N       14.33672152      14.86977001      15.88745443       0.00010817      -0.00010582      -0.00004653      -0.13429780
N       15.96439564      17.26645567      14.23986998      -0.00001822       0.00003979      -0.00004405      -0.07923286
N       15.75436163      13.94731016      14.45696026      -0.00007533       0.00001384       0.00013862      -0.13429776
N       15.30155516      15.13315287      14.95865093       0.00006925       0.00010027       0.00000422       0.22815794
