6
Properties=species:S:1:pos:R:3:forces:R:3:charge:R:1 formula=N6 topology=ring-3-subst integrity=OK energy_eV=-8930.883313 delta_E_eV_atom=2.0089 sg=P1 energy=-469.8798533757881 free_energy=-469.8798533757881 dipole="-0.3490889574936408 0.34911711126635714 -0.47437978664319685" pbc="F F F"
N        0.24046049      -0.20898648       0.80773200       0.00022550      -0.00022531      -0.00035695       0.44026679
N        1.07532076      -1.12476270       0.71229174      -0.00019819       0.00024026       0.00005561      -0.27609092
N        0.38256225      -0.28332948       2.03153275      -0.00002031      -0.00005126       0.00029597      -0.24102106
N       -0.51530945       0.48141819      -1.21826930       0.00005087       0.00003909      -0.00003642       0.33459230
N       -0.68845884       0.59826723      -2.31391306      -0.00007247      -0.00004870       0.00007445      -0.12261393
N       -0.49457522       0.53739325      -0.01937412       0.00001461       0.00004593      -0.00003266      -0.13513318
