8
Properties=species:S:1:pos:R:3:forces:R:3:charge:R:1 formula=N8 topology=bicyclic-3-4-6 n_edges=10 n_rings=3 ff_energy=307.1483 mace_energy_eV=-11917.694093 delta_E_eV_atom=0.6509160916530163 sg=P1 energy=-629.4168728053456 free_energy=-629.4168728053456 dipole="0.0022844166706786086 -0.0020565796339704952 -0.06778738688146002" pbc="F F F"
N       15.29246096      14.47600929      16.54544827       0.00013111      -0.00025564       0.00000691      -0.03851461
N       15.40947217      14.37336149      13.08020950       0.00033664      -0.00012891       0.00013482      -0.11510700
N       14.45590519      16.29238486      15.42215917      -0.00006442       0.00008019       0.00020040      -0.05082832
N       14.72554841      15.67733319      16.49026478       0.00006216       0.00004858      -0.00006203      -0.03851038
N       14.84367243      15.57256813      13.02515497      -0.00026618      -0.00016105      -0.00016982      -0.11511389
N       14.77749746      15.65740750      14.33989151       0.00003948       0.00037391      -0.00016733       0.20445660
N       15.63260029      13.79877890      15.53673430      -0.00017623      -0.00010252       0.00001024      -0.05081338
N       15.38625385      14.36724345      14.39913835      -0.00006255       0.00014543       0.00004681       0.20443098
