8
Properties=species:S:1:pos:R:3:forces:R:3:charge:R:1 formula=N8 topology=bicyclic-3-4 n_edges=9 n_rings=2 ff_energy=301.8905 mace_energy_eV=-11920.370918 delta_E_eV_atom=0.31631300934577666 sg=P1 energy=-631.3464652004857 free_energy=-631.3464652004857 dipole="-0.006196597729893262 0.09860831956917747 -0.041652928638427816" pbc="F F F"
N       13.26822409      16.01107633      15.11153122       0.00012987       0.00012602      -0.00014687      -0.04002401
N       14.14894423      15.02680515      15.39723735      -0.00015837      -0.00021110       0.00021900      -0.11858455
N       14.89598566      17.32178987      14.28587462       0.00015527      -0.00026761       0.00011241      -0.06746553
N       13.93244203      12.93573549      16.33612264      -0.00011130      -0.00020674       0.00012186      -0.17913929
N       16.96369789      16.30304495      14.39776753      -0.00002256       0.00015586       0.00000808      -0.17805844
N       13.90093244      13.96821370      15.89455501       0.00023190       0.00031815      -0.00024494       0.30183623
N       13.64459708      17.05534486      14.60003257      -0.00002638       0.00006417       0.00004300      -0.01278518
N       15.90205540      16.67265174      14.40670466      -0.00019844       0.00002125      -0.00011253       0.29422078
