8
Properties=species:S:1:pos:R:3:forces:R:3:charge:R:1 N8=T charge=0 mult=1 PG=C1 |=T B3LYP/aug-cc-pVDZ=T src:=T B=T p.47=T (B3LYP/aug-cc-pVDZ)=T -=T chaine=T ZZE=T energy=-631.0201005176407 free_energy=-631.0201005176407 dipole="1.6910386986882358e-05 -1.530319776436384e-05 8.109903718191623e-16" pbc="F F F"
N        0.05555809       0.16266874      -0.00000000       0.00013206      -0.00014689      -0.00000000      -0.18804739
N        1.15666893      -0.08203888      -0.00000000      -0.00034078       0.00009996       0.00000000       0.28826659
N        2.34958916       0.01042917       0.00000000       0.00017563       0.00021222       0.00000000      -0.05514637
N        3.23594776      -0.96367648      -0.00000000      -0.00005448      -0.00020313       0.00000000      -0.04506999
N        4.44295153      -0.59391486       0.00000000       0.00005608       0.00022343      -0.00000000      -0.04507659
N        5.32932352      -1.56801002      -0.00000000      -0.00020821      -0.00021803      -0.00000000      -0.05515476
N        6.52224201      -1.47550350       0.00000000       0.00031900      -0.00010081      -0.00000000       0.28826629
N        7.62336199      -1.72016517       0.00000000      -0.00007930       0.00013324       0.00000000      -0.18803778
