6
Properties=species:S:1:pos:R:3:forces:R:3:charge:R:1 formula=N6 topology=chain integrity=OK energy_eV=-8940.377836 delta_E_eV_atom=0.4265 sg=P1 energy=-473.29663887316764 free_energy=-473.29663887316764 dipole="1.4061838654891845e-05 3.1580825923644187e-05 3.18461578709886e-05" pbc="F F F"
N       -0.06903561       0.27374652       0.60963725       0.00010496      -0.00012405      -0.00005447      -0.09144979
N        0.82024278       0.64992358       1.31143843      -0.00001326       0.00009763       0.00000692       0.29144965
N        0.06898208      -0.27341642      -0.60975635      -0.00008535      -0.00009745       0.00006054      -0.09143951
N        1.43543978       1.07340994       2.15493703      -0.00002308      -0.00000302       0.00001451      -0.19999593
N       -0.82024427      -0.64999218      -1.31140591       0.00002513       0.00018529      -0.00007121       0.29144861
N       -1.43538478      -1.07367142      -2.15485045      -0.00000839      -0.00005839       0.00004371      -0.20001303
