8
Properties=species:S:1:pos:R:3:forces:R:3:charge:R:1 N8=T charge=0 mult=1 PG=C2v |=T B3LYP/aug-cc-pVDZ=T src:=T B=T p.52=T (B3LYP/aug-cc-pVDZ)=T -=T chaine=T EZE=T energy=-631.4166302043778 free_energy=-631.4166302043778 dipole="0.002255354226766924 -0.04373525322167886 -1.2107856209975143e-15" pbc="F F F"
N        0.00347906       0.28789195       0.00000000      -0.00022761      -0.00012054       0.00000000      -0.18716634
N        1.08697548      -0.01532903       0.00000000       0.00036185       0.00005734       0.00000000       0.29735791
N        2.28200760      -0.03247027      -0.00000000       0.00006759      -0.00003140       0.00000000      -0.08822642
N        3.06716940      -1.11899575      -0.00000000      -0.00020223      -0.00002348      -0.00000000      -0.02196352
N        4.27831517      -1.05658356      -0.00000000      -0.00011620       0.00016335      -0.00000000      -0.02196595
N        4.94760977       0.10491117      -0.00000000       0.00007366      -0.00002604       0.00000000      -0.08823301
N        6.13454953       0.24479136       0.00000000      -0.00021882      -0.00010415       0.00000000       0.29736146
N        7.18116099       0.65771813       0.00000000       0.00026176       0.00008491      -0.00000000      -0.18716412
