6
Properties=species:S:1:pos:R:3:forces:R:3:charge:R:1 formula=N6 topology=ring-3-substituted n_edges=6 n_rings=1 ff_energy=281.2478 mace_energy_eV=-8937.341567 delta_E_eV_atom=0.8057498942628172 sg=P1 energy=-472.2522157463876 free_energy=-472.2522157463876 dipole="1.8408511955536403e-05 -4.328575293831687e-05 2.5112846191765217e-05" pbc="F F F"
N       16.18458242      15.19876108      15.56999263      -0.00007591      -0.00011328      -0.00004791      -0.04582496
N       15.33067902      14.14520252      15.72215491      -0.00012199       0.00019734      -0.00020705      -0.04582127
N       15.56439391      16.20746374      15.16014055       0.00031949      -0.00004158       0.00020078       0.09166120
N       14.20467673      15.02402085      13.98795963       0.00002078      -0.00014032      -0.00012198      -0.04584178
N       14.46173806      16.23340083      14.56553333      -0.00030159       0.00018495      -0.00003525      -0.04584892
N       14.52643906      14.09323153      14.76267830       0.00015922      -0.00008711       0.00021141       0.09167572
