7
Properties=species:S:1:pos:R:3:forces:R:3:charge:R:1 formula=N7 topology=bicyclic-4-4-4 n_edges=9 n_rings=3 ff_energy=238.2059 mace_energy_eV=-10656.098965 delta_E_eV_atom=-31.937174433564223 sg=P1 energy=-549.3370243623723 free_energy=-549.3370243623723 dipole="-0.4325643086392817 -0.44859750748912575 -0.12201204971584677" pbc="F F F"
N       16.43315290      16.81935065      15.34453308      -0.00008074      -0.00008164       0.00003083      -0.04317273
N       15.38215252      16.84543582      14.61414827      -0.00013012      -0.00014150       0.00006414      -0.13144682
N       14.24314308      14.62154802      14.69690213       0.00019757       0.00031337      -0.00009586      -0.08161059
N       15.16810920      15.49549008      14.99237951      -0.00005743       0.00013718      -0.00018338       0.25102173
N       13.87363164      12.42145603      15.29505714      -0.00010577       0.00020338       0.00012658      -0.12395502
N       14.15035983      13.48575237      15.07268104       0.00009435      -0.00033352       0.00003122       0.32065791
N       16.25617368      15.48974585      15.73984643       0.00008213      -0.00009726       0.00002646      -0.19149449
