5
Properties=species:S:1:pos:R:3:forces:R:3:charge:R:1 formula=N5 topology=ring-3-substituted n_edges=5 n_rings=1 ff_energy=275.1616 mace_energy_eV=-7448.61734 delta_E_eV_atom=0.6392097790221669 sg=P1 energy=-390.53715776216546 free_energy=-390.53715776216546 dipole="-0.09805697613290115 0.2310399180478812 0.06489217940056351" pbc="F F F"
N       14.65558767      14.42661309      15.22621879      -0.00012426      -0.00004095       0.00000839       0.12281538
N       15.18570153      13.52286636      14.28091012       0.00004534      -0.00004499      -0.00003103      -0.12107722
N       15.36167323      13.24487293      15.53657495       0.00004918      -0.00005094      -0.00000344      -0.12107727
N       15.05644128      15.59105948      15.42784075      -0.00004518       0.00008351       0.00002461       0.22457736
N       15.03054702      16.69673282      15.67625581       0.00007492       0.00005336       0.00000147      -0.10523824
