9
Properties=species:S:1:pos:R:3:forces:R:3:charge:R:1 formula=N9 topology=ring-4-substituted n_edges=9 n_rings=1 ff_energy=93.6783 mace_energy_eV=-13410.559886 delta_E_eV_atom=0.3004681427057676 sg=P1 energy=-706.9363730100241 free_energy=-706.9363730100241 dipole="-0.05500625247908974 -0.16693442398235567 -0.009656355929313387" pbc="F F F"
N       14.06574574      15.59748960      17.11223712       0.00011122      -0.00019907      -0.00005395      -0.18533605
N       13.51645716      14.75695293      13.57417043       0.00008657       0.00006180      -0.00006023      -0.01792497
N       14.42022366      14.73189950      16.44716242      -0.00013892       0.00005860      -0.00000065       0.21238143
N       14.85524608      12.80925765      15.39159784       0.00007428      -0.00009434      -0.00001121       0.27633804
N       15.96464054      15.16931031      14.80824101       0.00014260       0.00030186       0.00000506      -0.05717646
N       16.37051745      16.17907101      14.61352603      -0.00016196      -0.00032872       0.00002388      -0.01910848
N       14.32309701      13.47809945      16.26418440      -0.00007377       0.00028125       0.00010665      -0.05338854
N       15.12205067      11.87774381      14.80127123       0.00000534      -0.00002126      -0.00006491      -0.17258850
N       13.25567498      15.34997512      12.68758600      -0.00004535      -0.00006013       0.00005536       0.01680352
