3
Properties=species:S:1:pos:R:3:initial_magmoms:R:1:forces:R:3:charge:R:1 N3=T charge=0 mult=2 PG=Dinfh |=T B3LYP/aug-cc-pVDZ=T src:=T B=T p.12=T (B3LYP/aug-cc-pVDZ)=T energy=-234.71578175905236 free_energy=-234.71578175905236 dipole="-6.113642560917256e-08 -3.235857299748402e-16 4.255736930378051e-16" pbc="F F F"
N        0.03552698      -0.00000000      -0.00000000       1.00000000      -0.00011705      -0.00000000      -0.00000000      -0.17859451
N        1.18460000       0.00000000      -0.00000000       0.00000000      -0.00000021       0.00000000       0.00000000       0.35718907
N        2.33367302       0.00000000       0.00000000       0.00000000       0.00011726      -0.00000000      -0.00000000      -0.17859456
