6
Properties=species:S:1:pos:R:3:initial_charges:R:1:initial_magmoms:R:1:forces:R:3:charge:R:1 N6=T charge=1 mult=2 PG=C2h |=T B3LYP/aug-cc-pVDZ=T src:=T B=T p.30=T (B3LYP/aug-cc-pVDZ,=T 2Bg,=T planar)=T energy=-458.97438668854454 free_energy=-458.97438668854454 dipole="2.749639508652665 -0.2820014986377686 -9.938111957645613e-16" pbc="F F F"
N       -0.03531062       0.08010909       0.00000000       1.00000000       1.00000000       0.00015027       0.00003072       0.00000000       0.06394002
N        1.07402689      -0.04387489       0.00000000       0.00000000       0.00000000      -0.00036730      -0.00012693      -0.00000000       0.35256425
N        2.27174861       0.13903186      -0.00000000       0.00000000       0.00000000       0.00017079       0.00017665      -0.00000000       0.08349574
N        3.22753039      -0.70303486       0.00000000       0.00000000       0.00000000      -0.00017058      -0.00017664       0.00000000       0.08349573
N        4.42525211      -0.52012811      -0.00000000       0.00000000       0.00000000       0.00036653       0.00012698      -0.00000000       0.35256425
N        5.53458962      -0.64411209       0.00000000       0.00000000       0.00000000      -0.00014972      -0.00003078       0.00000000       0.06394002
