7
Properties=species:S:1:pos:R:3:forces:R:3:charge:R:1 formula=N7 topology=ring-3-substituted n_edges=7 n_rings=1 ff_energy=252.5765 mace_energy_eV=-10429.938185 delta_E_eV_atom=0.3715084221064444 sg=P1 energy=-551.6128804973671 free_energy=-551.6128804973671 dipole="0.012744911411239984 -0.02265582044184716 0.11433646118528083" pbc="F F F"
N       14.75841760      13.64301908      12.57791551       0.00000214       0.00005047       0.00025394      -0.19007544
N       15.08796737      13.62212646      15.93799953       0.00000150       0.00000146       0.00006845      -0.09009726
N       14.85614318      13.80196976      13.69244897      -0.00000573      -0.00009214      -0.00041975       0.28414703
N       14.93052939      14.27198145      14.79026413       0.00000534       0.00005695       0.00014384      -0.07755022
N       15.14411688      14.31498541      17.00840671      -0.00000238       0.00008923      -0.00000778      -0.01374446
N       15.09030983      15.48351698      17.29278396      -0.00000773      -0.00022058      -0.00009619       0.26756169
N       15.07475895      16.47332218      17.84122072       0.00000688       0.00011462       0.00005750      -0.18024135
