4
Properties=species:S:1:pos:R:3:initial_magmoms:R:1:forces:R:3:charge:R:1 N4=T charge=0 mult=3 PG=D2d |=T CCSD(T)/aug-cc-pVDZ=T src:=T B=T p.18=T (CCSD(T)/aug-cc-pVDZ,=T 3A2)=T energy=-309.2610174406675 free_energy=-309.2610174406675 dipole="8.216708032850551e-05 -2.3211526375491085e-05 -0.07208356942981828" pbc="F F F"
N        0.99701948       0.00009964       0.31262572       2.00000000      -0.00001505       0.00000351      -0.00006714      -0.05833061
N       -0.00002661       0.73270266      -0.31294333       0.00000000       0.00001737       0.00005228       0.00005624       0.05837358
N       -0.99696702       0.00009832       0.31279626       0.00000000      -0.00002317       0.00000607      -0.00003720      -0.05841701
N       -0.00002586      -0.73290063      -0.31247865       0.00000000       0.00002084      -0.00006187       0.00004810       0.05837404
