10
 energy: -28.994405837746 gnorm: 0.000998685737 xtb: 6.6.1 (8d0f1dd)
N            1.79728772705372        0.76735683368247        1.23824809517959
N           -2.66422537894545       -1.25527261851109        0.49489910697267
N            1.95447560349937       -0.37617618511042        0.91127506818720
N            1.82306524203049        1.77677966915033        1.73401163594980
N           -2.20449132271734       -0.42906173313858       -0.11497523705615
N            1.47516732122057       -1.10177433612594       -0.09209657624336
N            0.21824158029037        0.48143871289442       -1.19554954969824
N           -1.97809708991767        0.55239053914250       -0.76664517493373
N            0.60857565824791       -0.67268096107355       -0.85295644041363
N           -0.88033712246900        1.01164054625510       -1.35603379037067
