9
Properties=species:S:1:pos:R:3:forces:R:3:charge:R:1 formula=N9 topology=ring-4-substituted n_edges=9 n_rings=1 ff_energy=124.3657 mace_energy_eV=-13409.459512 delta_E_eV_atom=0.4227319285141675 sg=P1 energy=-707.2589949046123 free_energy=-707.2589949046123 dipole="0.3466783067457063 0.01862403315470693 0.22623414495985233" pbc="F F F"
N       13.83815764      15.39698863      14.90463456      -0.00013696       0.00023135       0.00003742       0.10676787
N       16.98977590      13.56249784      17.35267218      -0.00009906       0.00010448      -0.00005013      -0.15307944
N       16.13553865      14.99540366      15.76636237       0.00018221      -0.00006577       0.00009612      -0.12146695
N       13.42051134      16.57491639      15.26892422       0.00002494      -0.00010049      -0.00000389       0.09561342
N       15.18796454      14.94834971      14.84240055       0.00003493       0.00004848      -0.00001472       0.12290291
N       13.57805117      14.44594441      13.91721136       0.00007020      -0.00004993      -0.00006104      -0.10667418
N       16.44843386      14.15242127      16.57026820       0.00006283      -0.00005273       0.00003914       0.30795422
N       14.76383766      13.98157714      13.97973370      -0.00010810      -0.00010655      -0.00006907      -0.09916030
N       12.41142281      17.15767295      15.21909745      -0.00003100      -0.00000885       0.00002617      -0.15285756
