6
Properties=species:S:1:pos:R:3:forces:R:3:charge:R:1 formula=N6 topology=ring-4-substituted n_edges=6 n_rings=1 ff_energy=99.359 mace_energy_eV=-8942.354447 delta_E_eV_atom=-0.02973017430508662 sg=P1 energy=-470.58724486066427 free_energy=-470.58724486066427 dipole="0.0022829857489941366 -0.0019321493931620001 0.0015824213402212456" pbc="F F F"
N       14.10840836      15.08598642      17.53037971      -0.00000928       0.00022506       0.00006663      -0.00205447
N       16.55904561      14.09975741      12.72676369      -0.00003812       0.00002189       0.00009541      -0.00203825
N       13.64732686      16.01849868      14.60325284      -0.00009583      -0.00004410      -0.00005345      -0.00096463
N       14.58370948      14.95072622      16.54882620       0.00003281      -0.00028131      -0.00005117       0.00303754
N       14.14024591      15.82208883      13.63983313       0.00006289       0.00007075       0.00006329      -0.00099013
N       16.02442083      14.32095283      13.66105734       0.00004753       0.00000770      -0.00012072       0.00300994
