8
Properties=species:S:1:pos:R:3:forces:R:3:charge:R:1 formula=N8 topology=bicyclic-3-5 n_edges=9 n_rings=2 ff_energy=245.0617 mace_energy_eV=-11921.663704 delta_E_eV_atom=0.15471475115100475 sg=P1 energy=-631.8654177684924 free_energy=-631.8654177684924 dipole="0.304365677256139 0.25716418580221573 -0.4557580563513483" pbc="F F F"
N       14.08376602      14.34083036      17.01501368       0.00002002       0.00001154       0.00000227      -0.04998004
N       17.08182037      16.52112747      13.72742774       0.00006330      -0.00009983       0.00004922      -0.13027669
N       15.00089434      15.58686166      14.04064397      -0.00030319      -0.00009365      -0.00004605      -0.11571024
N       13.20584842      14.54938236      15.10016315       0.00005764       0.00006080      -0.00008135      -0.11425997
N       16.10761446      16.04674318      13.99983491       0.00011817       0.00011258      -0.00002665       0.33000180
N       13.01438108      14.12295765      16.28627653       0.00012996      -0.00004253      -0.00009769      -0.05544146
N       14.42871652      15.04129660      15.10847618      -0.00006625       0.00001881       0.00017113       0.28475560
N       14.97903939      14.90969702      16.31174966      -0.00001963       0.00003228       0.00002911      -0.14908900
