9
Properties=species:S:1:pos:R:3:forces:R:3:charge:R:1 formula=N9 topology=bicyclic-3-5 n_edges=10 n_rings=2 ff_energy=811.503 mace_energy_eV=-13410.358019 delta_E_eV_atom=0.3228978589811504 sg=P1 energy=-704.5759227389296 free_energy=-704.5759227389296 dipole="-0.1916300767865133 0.42486969786716355 0.19651267086614244" pbc="F F F"
N       15.01382467      15.76700898      13.57238854       0.00015136       0.00015457       0.00017832      -0.09725276
N       13.82128027      13.19195651      13.56676670      -0.00035771       0.00023630       0.00015935      -0.02656632
N       13.88792362      14.07935254      14.22476623       0.00016853      -0.00009366      -0.00023242      -0.03963595
N       14.91635723      16.59988488      14.70130174      -0.00005123      -0.00016009      -0.00014664       0.13833856
N       13.57901004      16.57394263      16.61526194      -0.00020283      -0.00010198       0.00018066      -0.08075993
N       16.12025337      14.36290181      15.78898666      -0.00009759       0.00017925       0.00013853      -0.03965688
N       14.23199740      16.37124988      15.71968160       0.00031665      -0.00016775      -0.00027621       0.26935305
N       16.90392386      13.58385344      15.72724164       0.00021726      -0.00000233       0.00008169      -0.02654754
N       16.07440796      15.90164385      14.31535201      -0.00014444      -0.00004432      -0.00008328      -0.09727224
