7
Properties=species:S:1:pos:R:3:forces:R:3:charge:R:1 formula=N7 topology=ring-7 n_edges=7 n_rings=1 ff_energy=12.8313 mace_energy_eV=-10428.089422 delta_E_eV_atom=0.6356174790380464 sg=P1 energy=-550.2746913120642 free_energy=-550.2746913120642 dipole="-0.010258786860886117 0.00033451246859352165 -0.002956535167384573" pbc="F F F"
N       13.71903818      15.04809550      14.62207512      -0.00006765       0.00008771      -0.00047223       0.14603235
N       16.46443603      15.10905844      14.63808448      -0.00027378       0.00012566      -0.00033788      -0.02602878
N       13.70580851      14.81365892      15.82794350       0.00005207      -0.00005551       0.00022576      -0.11289689
N       14.95523041      14.72977074      16.41020084      -0.00014103       0.00002109       0.00012288       0.06589431
N       14.34117151      15.26398128      13.58496065      -0.00001940      -0.00001914       0.00015958      -0.11286675
N       15.71454974      15.26796210      13.72962074       0.00023974      -0.00009651       0.00031873       0.06592746
N       16.07315565      14.83177345      16.01940575       0.00021005      -0.00006330      -0.00001685      -0.02606171
