8
Properties=species:S:1:pos:R:3:forces:R:3:charge:R:1 formula=N8 topology=ring-4-substituted n_edges=8 n_rings=1 ff_energy=83.3511 mace_energy_eV=-11923.140922 delta_E_eV_atom=-0.029937574806808698 sg=P1 energy=-627.4913315376822 free_energy=-627.4913315376822 dipole="0.0009727040858197373 0.0009661099987589747 0.0003433332559877052" pbc="F F F"
N       14.95491298      13.93753452      15.86707250       0.00005049       0.00032300       0.00010494      -0.00158086
N       12.80721417      13.07585751      13.83809229      -0.00015448       0.00000988      -0.00028544       0.00381001
N       14.90697397      16.39413076      13.34651216       0.00007599       0.00027754       0.00004327      -0.00146304
N       15.29890826      14.87373575      16.33153419      -0.00000068      -0.00043010      -0.00001179      -0.00144402
N       14.56912376      15.43204638      12.93328006       0.00003704      -0.00023183      -0.00006682      -0.00154831
N       16.56529811      16.40645599      15.04110115      -0.00039847      -0.00016555      -0.00017394      -0.00032933
N       16.89689581      17.35782072      15.48224466       0.00009440       0.00021671       0.00013316       0.00367964
N       13.19882571      14.01162879      14.26302937       0.00029572       0.00000036       0.00025663      -0.00112409
