7
Properties=species:S:1:pos:R:3:forces:R:3:charge:R:1 formula=N7 topology=ring-3-substituted n_edges=7 n_rings=1 ff_energy=282.9392 mace_energy_eV=-10429.537451 delta_E_eV_atom=0.42875606921938925 sg=P1 energy=-547.5541524465691 free_energy=-547.5541524465691 dipole="0.24429062519686132 0.03642691051430455 0.3136635183795855" pbc="F F F"
N       15.80341998      15.02868633      16.31402215      -0.00019729       0.00000764       0.00002416       0.24609430
N       13.52238431      13.37811489      13.62688458       0.00007853       0.00005749       0.00006909      -0.03340957
N       14.75549486      15.70614774      16.30089912       0.00031264      -0.00025149      -0.00010018       0.13170870
N       14.28616104      16.51084981      15.25345483      -0.00015985       0.00009418      -0.00008354      -0.12433459
N       13.61265977      15.43027551      15.51360892      -0.00002055       0.00013979       0.00011977      -0.08479964
N       16.76096040      14.57282474      16.70485430       0.00005224       0.00005601       0.00010959      -0.09199254
N       14.23553972      13.82946488      14.34580934      -0.00006572      -0.00010362      -0.00013888      -0.04326665
