6
Properties=species:S:1:pos:R:3:forces:R:3:charge:R:1 N6=T charge=0 mult=1 PG=D3h |=T B3LYP/aug-cc-pVDZ=T src:=T B=T p.31=T (B3LYP/aug-cc-pVDZ)=T -=T prisme=T trigonal=T energy=-467.37058129403584 free_energy=-467.37058129403584 dipole="-2.934939535599603e-09 9.047572738433322e-15 4.391597806479811e-15" pbc="F F F"
N        0.82342652       0.00000000       0.74240206      -0.00009887       0.00000000       0.00030948      -0.00000000
N       -0.41171326       0.71310829       0.74240206       0.00004943      -0.00008555       0.00030934       0.00000000
N       -0.41171326      -0.71310829       0.74240206       0.00004943       0.00008555       0.00030934       0.00000000
N        0.82342652      -0.00000000      -0.74240206      -0.00009887       0.00000000      -0.00030948      -0.00000000
N       -0.41171326       0.71310829      -0.74240206       0.00004943      -0.00008555      -0.00030934       0.00000000
N       -0.41171326      -0.71310829      -0.74240206       0.00004943       0.00008555      -0.00030934       0.00000000
