8
Properties=species:S:1:pos:R:3:forces:R:3:charge:R:1 formula=N8 topology=bicyclic-3-3-6 n_edges=10 n_rings=3 ff_energy=535.9705 mace_energy_eV=-11919.033622 delta_E_eV_atom=0.4834749544784245 sg=P1 energy=-629.6514924108207 free_energy=-629.6514924108207 dipole="1.4158077678105809e-05 1.798548316635671e-05 6.647536205580973e-06" pbc="F F F"
N       15.11901064      15.92040365      16.07652943       0.00006129       0.00000871       0.00008684       0.00006646
N       16.05355096      14.97244337      15.90581719      -0.00009092       0.00035488       0.00005637       0.00006480
N       13.85853351      13.86590316      14.38823945      -0.00011880      -0.00003681      -0.00017272       0.00006033
N       14.31369578      14.79974028      13.53858593      -0.00010237      -0.00011479       0.00004439       0.00005324
N       14.58242550      15.93980442      13.88883866       0.00012070      -0.00024077      -0.00003099      -0.00005755
N       14.53018691      13.42401192      15.30923478      -0.00011849      -0.00007124      -0.00010188      -0.00006164
N       14.44724305      16.36229508      15.15561440       0.00021107      -0.00003815       0.00022476      -0.00006044
N       15.78479678      13.83238307      15.55557921       0.00003752       0.00013817      -0.00010677      -0.00006519
