8
Properties=species:S:1:pos:R:3:forces:R:3:charge:R:1 formula=N8 topology=bicyclic-3-4-4-5 n_edges=11 n_rings=4 ff_energy=541.2601 mace_energy_eV=-11920.086821 delta_E_eV_atom=0.3518251303728448 sg=P1 energy=-629.15469164781 free_energy=-629.15469164781 dipole="-0.002093964291871329 0.015249231638519533 0.004255176892416896" pbc="F F F"
N       14.36356212      14.05526120      13.66401557       0.00010618       0.00012951       0.00011697      -0.04649874
N       15.58443593      16.90884058      15.56761969      -0.00018972      -0.00008588       0.00010122      -0.01805101
N       13.45097610      14.80579330      14.34560429       0.00006092       0.00006461       0.00000504      -0.03973369
N       15.43276424      13.97028961      14.31204224      -0.00002194       0.00001877      -0.00010122       0.08830822
N       14.40758233      13.98101472      16.20279921       0.00005012      -0.00014944       0.00009973      -0.04735629
N       15.59139423      14.14647334      15.54356812       0.00003815      -0.00007862       0.00007023      -0.05018962
N       13.47378466      14.52001258      15.56432121      -0.00023107       0.00002271      -0.00012404       0.09663843
N       16.53648020      17.39731266      15.81423676       0.00018736       0.00007834      -0.00016793       0.01688269
