4
Properties=species:S:1:pos:R:3:forces:R:3:charge:R:1 N4=T charge=0 mult=1 PG=Td |=T CCSD(T)/aug-cc-pVTZ=T src:=T B=T p.19=T (CCSD(T)/aug-cc-pVTZ)=T -=T tetraazatetrahedrane=T energy=-312.50458196960733 free_energy=-312.50458196960733 dipole="-1.0134456476491871e-15 -4.5972244596260225e-15 -1.0281332657310593e-15" pbc="F F F"
N        0.49600469       0.49600469       0.49600469       0.00006042       0.00006042       0.00006042      -0.00000000
N        0.49600469      -0.49600469      -0.49600469       0.00006042      -0.00006042      -0.00006042       0.00000000
N       -0.49600469       0.49600469      -0.49600469      -0.00006042       0.00006042      -0.00006042      -0.00000000
N       -0.49600469      -0.49600469       0.49600469      -0.00006042      -0.00006042       0.00006042       0.00000000
