8
Properties=species:S:1:pos:R:3:forces:R:3:charge:R:1 formula=N8 topology=polycyclic-3-4 integrity=OK energy_eV=-11920.314999 delta_E_eV_atom=0.4501 sg=P1 energy=-626.5683930770706 free_energy=-626.5683930770706 dipole="-0.05253439370144194 -0.11807281126955442 0.011463633029664395" pbc="F F F"
N       -0.28983136       2.44976607      -1.63528356      -0.00022903       0.00006468      -0.00036790       0.01242839
N        0.26634899      -1.32092632       0.99487900       0.00013656      -0.00008811       0.00012536       0.07536652
N       -1.10533371       0.02088820       0.70040915       0.00009679       0.00011575       0.00037114      -0.04058169
N        0.30594065       2.03851115      -0.80953066       0.00024226      -0.00010405       0.00041903      -0.01268009
N        0.49079763      -0.84315619      -0.87329097       0.00021116       0.00022571      -0.00017338      -0.04053325
N       -0.64830534      -1.05226180      -0.08031638      -0.00012755      -0.00034678      -0.00017754       0.07112747
N       -0.30754002      -0.21458385       1.63809442      -0.00015145       0.00022132      -0.00019929      -0.03257765
N        1.28792317      -1.07823725       0.06503901      -0.00017875      -0.00008853       0.00000257      -0.03254971
