10
formula=N10 topology=branched-tree integrity=OK energy_eV=-14899.633541 delta_E_eV_atom=0.5261 sg=P1
N  2.02126354  -1.16252847  0.50204988
N  0.05811965  -0.21590675  0.23133185
N  0.83292270  -1.15814930  -0.06494079
N  -1.15856180  -0.52027686  -0.42305534
N  -1.91584629  0.68787242  -0.18930868
N  -1.55266146  1.51867697  -1.09058529
N  -1.42120745  -1.52412792  -0.95585312
N  2.12881450  -0.31785776  1.46302881
N  2.38272092  0.33166953  2.32256821
N  -1.37556430  2.36062815  -1.79523553
