12
formula=N12 topology=ring-3-subst integrity=OK energy_eV=-17879.163291 delta_E_eV_atom=0.5592 sg=P1
N  0.87164144  1.15648276  1.46929190
N  1.00688509  0.37367737  0.32299406
N  -0.19026444  0.02509384  0.12361756
N  2.02705540  1.54628400  1.81225784
N  3.02554251  1.91027116  2.13961864
N  -0.70970884  -0.70182760  -0.76534257
N  -1.20466556  0.60568296  1.15660986
N  0.27923379  -0.93241116  -1.70236943
N  -0.11903692  -1.80715225  -2.53462093
N  -2.36814136  0.69265220  0.31778340
N  -0.32483920  -2.56022557  -3.32823879
N  -2.29370194  -0.30852772  0.98839845
