10
formula=N10 topology=branched-tree integrity=OK energy_eV=-14899.626832 delta_E_eV_atom=0.5268 sg=P1
N  1.43509133  0.02636217  0.08878693
N  0.38553557  -0.38192627  -0.68097519
N  2.48253881  0.01056830  -0.63835539
N  3.48847904  0.05991701  -1.10537869
N  -0.71668867  -0.42350993  -0.05890893
N  -0.91019690  -0.26300893  1.31267326
N  -1.92211014  -0.81259734  -0.77693972
N  -1.13986044  0.96575866  1.61750288
N  -1.75538161  -1.10058857  -1.90361978
N  -1.34740698  1.91902489  2.14521462
