4
Properties=species:S:1:pos:R:3:forces:R:3:charge:R:1 formula=N4 topology=branched-tree integrity=OK energy_eV=-5954.780423 delta_E_eV_atom=1.7943 sg=P1 energy=-306.98264410682145 free_energy=-306.98264410682145 dipole="-3.642299787347491e-05 -6.434177839887739e-05 1.7804105735075573e-05" pbc="F F F"
N        0.00000136      -0.00000119       0.00000305       0.00001622      -0.00008372       0.00021302       0.50484666
N       -0.70995755      -1.02521168       0.16056207      -0.00001935      -0.00002976      -0.00008259      -0.16824234
N        0.98804934      -0.03488008      -0.77679989      -0.00000007       0.00002619      -0.00007531      -0.16830218
N       -0.27809315       1.06009295       0.61623476       0.00000319       0.00008728      -0.00005512      -0.16830214
