8
Properties=species:S:1:pos:R:3:forces:R:3:charge:R:1 formula=N8 topology=bicyclic-3-4-4 n_edges=10 n_rings=3 ff_energy=374.9805 mace_energy_eV=-11915.980732 delta_E_eV_atom=0.865086230189263 sg=P1 energy=-624.9395729404476 free_energy=-624.9395729404476 dipole="-0.20174651340694544 -0.08286509866754374 -0.2151872761039766" pbc="F F F"
N       13.91291804      15.23304762      14.29279407      -0.00006239      -0.00003858      -0.00002312      -0.07122596
N       15.85045529      14.67044784      13.99453830       0.00003570      -0.00001612       0.00003755       0.08462421
N       14.64348087      13.92004460      14.11347901      -0.00006831      -0.00002798      -0.00002160      -0.07122600
N       15.17233252      15.88920306      14.16098203       0.00000985       0.00003034       0.00004391       0.08462420
N       16.07200322      16.18585892      15.16355830       0.00004760      -0.00002115      -0.00003785      -0.09358497
N       14.03067464      14.28101008      15.35868579       0.00021224       0.00010885       0.00006715       0.35154570
N       13.76382006      13.98700948      16.42423844      -0.00017808      -0.00009373      -0.00003905      -0.19117222
N       16.69398776      15.06799805      15.01089357       0.00000338       0.00005837      -0.00002700      -0.09358497
