10
Properties=species:S:1:pos:R:3:forces:R:3:charge:R:1 formula=N10 topology=bicyclic-4-5-5 n_edges=12 n_rings=3 ff_energy=564.6788 mace_energy_eV=-14902.581813 delta_E_eV_atom=0.10449638382556259 sg=P1 energy=-788.8152033288668 free_energy=-788.8152033288668 dipole="0.2844309639485874 0.2975778998557485 0.4516190402039544" pbc="F F F"
N       13.43136426      13.95403541      13.50845287      -0.00004447       0.00006155      -0.00013329      -0.05474046
N       15.26977561      15.84974222      16.52700124      -0.00024962      -0.00028993      -0.00010818       0.33836069
N       13.09656138      12.92421882      14.24810101       0.00004198       0.00000211      -0.00004342      -0.05643035
N       17.15021060      14.81733427      13.15225767      -0.00000132      -0.00044854       0.00004155       0.02425327
N       13.50087361      13.10208208      15.44498558       0.00008355       0.00010800       0.00007020      -0.11627197
N       14.65821285      14.81842150      16.50543328       0.00011387       0.00012788      -0.00007856      -0.11380637
N       14.09872282      14.27529705      15.43157066      -0.00001931      -0.00002313       0.00014691       0.29140422
N       16.70088021      14.93081973      14.14787785       0.00000687       0.00044501      -0.00005375      -0.02862547
N       15.85615339      16.76286400      16.79108700       0.00011179       0.00013622       0.00008560      -0.13230890
N       14.05422196      14.81106208      14.21600163      -0.00004335      -0.00011916       0.00007293      -0.15183465
