10
Properties=species:S:1:pos:R:3:forces:R:3:charge:R:1 formula=N10 topology=ring-6-substituted n_edges=10 n_rings=1 ff_energy=27.3365 mace_energy_eV=-14898.594881 delta_E_eV_atom=0.5031895693616661 sg=P1 energy=-789.02390475633 free_energy=-789.02390475633 dipole="0.050561938571939184 0.14830425793053686 -0.04378172751000543" pbc="F F F"
N       14.76206409      16.29746413      13.09307698       0.00007015      -0.00019847       0.00018809       0.04842243
N       16.39629411      15.44468195      17.17960132      -0.00006818      -0.00001081      -0.00034738       0.29593611
N       13.79118109      13.72233756      12.65666275       0.00009633       0.00000044       0.00003277       0.27656005
N       14.17193254      15.92874219      12.07572495       0.00002824       0.00009216       0.00003701      -0.06500240
N       13.74410885      12.70177284      13.13248194      -0.00011513      -0.00001084      -0.00013155      -0.19725819
N       16.74480919      15.30021750      18.24054528       0.00008151       0.00009271       0.00015645      -0.18573692
N       15.34864040      15.77348330      14.04471310      -0.00021064       0.00011975      -0.00013585       0.03383925
N       15.23580513      15.85188791      15.27833772       0.00003434       0.00006745      -0.00010760      -0.05515247
N       13.70168604      14.68561376      11.95063828       0.00006195      -0.00003442       0.00009358      -0.07650709
N       16.31789054      15.52028965      15.99036090       0.00002145      -0.00011797       0.00021446      -0.07510076
