10
Properties=species:S:1:pos:R:3:forces:R:3:charge:R:1 formula=N10 topology=bicyclic-3-4-5 n_edges=12 n_rings=3 ff_energy=336.5048 mace_energy_eV=-14898.93225 delta_E_eV_atom=0.4694526586754364 sg=P1 energy=-786.3849220359613 free_energy=-786.3849220359613 dipole="-0.06637805685960103 0.026066219446040415 -0.05234454496731124" pbc="F F F"
N       13.33178067      16.23978378      13.12200729       0.00001742      -0.00007305      -0.00002249       0.00091629
N       15.09743876      14.17946220      15.35405624      -0.00023368       0.00014771      -0.00000974      -0.12748935
N       14.46610918      16.61932303      12.90664359       0.00007446      -0.00007067       0.00004964       0.02493453
N       14.61216509      15.35567502      14.88372538       0.00012936       0.00013822      -0.00000779       0.06719256
N       15.31608522      17.79666047      17.14531486       0.00014447      -0.00016633      -0.00026407      -0.18113854
N       15.72516653      13.34440843      14.76287972       0.00003375       0.00003741      -0.00001189       0.30806820
N       15.34308553      16.48867184      15.25685184      -0.00019628       0.00008310       0.00032397      -0.15705773
N       15.20010518      17.08895448      16.28259502      -0.00004156      -0.00003633      -0.00002687       0.30470091
N       14.39437236      15.32131532      13.47126354      -0.00010946       0.00010274       0.00000708      -0.06704148
N       16.22602790      12.39667001      14.43637363       0.00018152      -0.00016278      -0.00003783      -0.17308538
