8
 energy: -23.033600720605 gnorm: 0.000874805694 xtb: 6.6.1 (8d0f1dd)
N            0.55055082583480        0.04939689266349        1.17895646428697
N           -0.76278905878868        0.56336386181695        0.94988077931387
N            0.93818183491503       -1.10271482770480        0.57839936860709
N            0.36079550366633        1.23019485523927        0.39678042956573
N           -1.25121154558511        0.26030936865973       -0.41005074038235
N            0.53012610504720       -1.35647638074315       -0.55634765986374
N           -0.12756650946928        0.92652604521219       -0.96206389218060
N           -0.29556145393998       -0.47598423607465       -1.17555016121847
