3
Properties=species:S:1:pos:R:3:initial_charges:R:1:forces:R:3:charge:R:1 N3=T charge=1 mult=1 PG=D3h |=T CCSD(T)/cc-pVTZ=T src:=T B=T p.11=T (CCSD(T)/cc-pVTZ)=T energy=-216.50759351535507 free_energy=-216.50759351535507 dipole="2.5415852363321807e-10 -1.9387655868071405e-15 -1.3554937633280028e-17" pbc="F F F"
N        0.74113524       0.00000000      -0.00000000       1.00000000       0.00002421      -0.00000000       0.00000000       0.33333333
N       -0.37056762       0.64184194       0.00000000       0.00000000      -0.00001210       0.00002096      -0.00000000       0.33333333
N       -0.37056762      -0.64184194      -0.00000000       0.00000000      -0.00001210      -0.00002096       0.00000000       0.33333333
