6
 energy: -17.354948044763 gnorm: 0.000648274730 xtb: 6.6.1 (8d0f1dd)
N            1.26830438652270        0.00039002770534        0.24678051177903
N            0.59728767412695        1.03478773164261        0.01940851183453
N           -0.62980747993313        1.10535729505988       -0.22597603244315
N           -1.27149653895260       -0.00806002185628        0.23055857913086
N           -0.59732680490560       -1.03463489727460       -0.01927079429327
N            0.63303840775681       -1.09783944174490       -0.25150119476926
