7
Properties=species:S:1:pos:R:3:forces:R:3:charge:R:1 formula=N7 topology=bicyclic-3-4 n_edges=8 n_rings=2 ff_energy=311.135 mace_energy_eV=-10427.364463 delta_E_eV_atom=0.7391830196056617 sg=P1 energy=-547.3702602330818 free_energy=-547.3702602330818 dipole="-0.14036593296722796 -0.4992361370053159 -0.08592489389900805" pbc="F F F"
N       15.30306890      14.10134989      15.05374799       0.00001389      -0.00019583       0.00000607       0.24504434
N       15.81923728      17.04687956      14.70453344       0.00011515      -0.00000580      -0.00015012      -0.10023453
N       14.79496305      16.31602177      14.08242429      -0.00001876       0.00005217      -0.00000133      -0.02271064
N       15.27505629      16.99944116      15.86909814      -0.00003697      -0.00002509       0.00018488      -0.10023565
N       14.58403300      15.03278894      14.75569441      -0.00017188       0.00005307      -0.00007364       0.10499982
N       14.16367472      16.26098922      15.43339780      -0.00001279       0.00004318      -0.00001773      -0.02270953
N       15.83242836      13.11849632      15.26107095       0.00011137       0.00007830       0.00005187      -0.10415381
