7
Properties=species:S:1:pos:R:3:forces:R:3:charge:R:1 formula=N7 topology=ring-3-substituted n_edges=7 n_rings=1 ff_energy=259.4869 mace_energy_eV=-10432.359208 delta_E_eV_atom=0.025647980010944593 sg=P1 energy=-550.004649391086 free_energy=-550.004649391086 dipole="0.09350855457582957 0.12334567757547472 -0.00027961568101392357" pbc="F F F"
N       14.74427979      16.56689036      14.78852080      -0.00010390      -0.00004993       0.00000341      -0.05757713
N       14.58847706      12.80015413      14.57457635       0.00001954       0.00003548      -0.00002939      -0.01138789
N       17.04731493      16.53198238      14.59668366       0.00013985      -0.00000147      -0.00001765      -0.16949921
N       12.63752409      15.65724621      14.90727302       0.00001671       0.00001854      -0.00000955      -0.18034070
N       13.77872213      15.74066381      14.81827508       0.00002771       0.00001003       0.00002296       0.20779496
N       15.02377974      13.81511058      14.59971003      -0.00001760      -0.00002716       0.00003194      -0.05695375
N       15.93567340      16.31514827      14.67519744      -0.00008230       0.00001451      -0.00000173       0.26796371
