7
Properties=species:S:1:pos:R:3:forces:R:3:charge:R:1 formula=N7 topology=bicyclic-3-4-5 n_edges=9 n_rings=3 ff_energy=322.0963 mace_energy_eV=-10426.872294 delta_E_eV_atom=0.8094928918408186 sg=P1 energy=-550.0359325885443 free_energy=-550.0359325885443 dipole="-0.01935677931167433 0.010823519884340565 0.0011290699072853847" pbc="F F F"
N       14.84594949      15.30729849      15.46461247       0.00012298      -0.00005698      -0.00000371       0.20346134
N       15.29010243      13.69717616      14.11868335      -0.00009666       0.00007434       0.00001023      -0.09662577
N       13.15251201      15.23542214      14.57559287       0.00018248      -0.00001704       0.00026646      -0.10328419
N       13.61887442      15.97363647      15.51686643      -0.00006576      -0.00006992      -0.00025222      -0.10329883
N       14.36195361      14.54114219      14.48775513      -0.00006952       0.00008291      -0.00006412       0.20343120
N       16.07827472      14.94484814      15.70945850      -0.00014861      -0.00001973       0.00003299      -0.09661326
N       16.28566769      13.98513914      14.87948928       0.00007509       0.00000641       0.00001038      -0.00707049
