10
Properties=species:S:1:pos:R:3:forces:R:3:charge:R:1 formula=N10 topology=branched-tree n_edges=9 n_rings=0 ff_energy=23.1776 mace_energy_eV=-14899.890363 delta_E_eV_atom=0.37364141271723383 sg=P1 energy=-787.5190898441742 free_energy=-787.5190898441742 dipole="-0.07791610902988548 -0.020194616570349464 0.33484537799503683" pbc="F F F"
N       13.90728505      14.19483204      15.81427540       0.00003501       0.00000369      -0.00007027       0.04172493
N       15.50115152      14.75565060      14.27864025      -0.00002262      -0.00001717       0.00007863       0.33573756
N       15.02674753      14.61405367      15.64890744      -0.00007977      -0.00003512       0.00001766      -0.10433259
N       10.94484355      13.04247085      14.69684815       0.00012225      -0.00000515       0.00003304      -0.15980350
N       14.92381615      14.50980218      13.29913394      -0.00000271       0.00001423      -0.00006398      -0.33373413
N       11.96968641      13.43740607      14.95004506      -0.00007611      -0.00001872      -0.00002005       0.28845934
N       18.41217288      15.81914996      12.87327919       0.00028608       0.00005787      -0.00015807      -0.17789846
N       13.09200804      13.85928140      14.84355057       0.00003785       0.00007143       0.00005740      -0.04045161
N       17.58406031      15.52482888      13.57012280      -0.00034077      -0.00009172       0.00025190       0.31918348
N       16.81844217      15.25909877      14.44408271       0.00004079       0.00002065      -0.00012625      -0.16888501
