9
Properties=species:S:1:pos:R:3:forces:R:3:charge:R:1 formula=N9 topology=bicyclic-3-3-4 n_edges=11 n_rings=3 ff_energy=575.5031 mace_energy_eV=-13407.912544 delta_E_eV_atom=0.5946172491248944 sg=P1 energy=-707.0433689504381 free_energy=-707.0433689504381 dipole="-0.04932551611702169 0.11599401710536993 0.016243080131780337" pbc="F F F"
N       14.32493992      15.03216424      15.84327263       0.00012070      -0.00015895      -0.00020324      -0.09345586
N       13.93619104      15.14867519      14.67115204       0.00005648      -0.00021873      -0.00028690       0.10586780
N       13.94499399      14.54758834      13.62799411      -0.00006173       0.00018398       0.00034578      -0.04279800
N       14.96724149      16.10466833      17.83411816       0.00002786      -0.00012492       0.00018785      -0.00908867
N       14.02057430      16.00602001      16.74297764      -0.00034342       0.00003924       0.00011272       0.02138525
N       15.18146013      12.43840338      11.31051406      -0.00001467       0.00002958       0.00018928      -0.18915614
N       14.85564516      13.62066365      13.26055940       0.00001381       0.00004429      -0.00006693      -0.08565080
N       14.99139969      17.00700307      17.00591865       0.00019747       0.00025150      -0.00010572      -0.00384661
N       14.90782445      13.07876592      12.19755002       0.00000349      -0.00004598      -0.00017284       0.29674303
