10
Properties=species:S:1:pos:R:3:forces:R:3:charge:R:1 N10=T charge=0 mult=1 PG=D10h |=T Becke3LYP/6-31G*=T src:=T GS=T Fig.6=T (23,=T D10h)=T energy=-788.3689160429376 free_energy=-788.3689160429376 dipole="-0.08635032791333426 0.032090744489737484 0.017010610896345757" pbc="F F F"
N        2.23866474      -0.15460937      -0.37103560      -0.00019780      -0.00009623      -0.00003962      -0.05103116
N        1.54579871       0.93591144      -0.25794267       0.00007930      -0.00023390       0.00006837      -0.00047960
N        0.37217724       1.16110049      -0.01721654       0.00004516       0.00005402      -0.00018579       0.08371635
N       -0.51405401       1.36002974       0.79531214       0.00003890       0.00001726       0.00018946       0.02616318
N       -1.78133527       1.27508072       0.69202413      -0.00007716       0.00010723       0.00002597      -0.05834162
N       -2.28317091       0.23098094       0.10652318      -0.00024124       0.00015997       0.00007699      -0.05832384
N       -1.48300365      -0.61993612      -0.40290468       0.00000687      -0.00021292      -0.00020736       0.02613021
N       -0.46513800      -1.12674180       0.03565119       0.00041951      -0.00025118      -0.00000338       0.08365988
N        0.57974279      -1.72354395      -0.15970759      -0.00001958       0.00034629       0.00003283      -0.00049134
N        1.79031832      -1.33827207      -0.42070357      -0.00005396       0.00010946       0.00004252      -0.05100206
