9
Properties=species:S:1:pos:R:3:forces:R:3:charge:R:1 formula=N9 topology=ring-3-substituted n_edges=9 n_rings=1 ff_energy=286.1337 mace_energy_eV=-13409.9115 delta_E_eV_atom=0.37251107267275074 sg=P1 energy=-706.9151386244216 free_energy=-706.9151386244216 dipole="0.33200903396534087 0.08388817201830695 0.4153151594640933" pbc="F F F"
N       15.55933093      13.01067214      15.32867556       0.00010990      -0.00036359      -0.00019276       0.33937015
N       14.56284417      17.28066224      15.26329967      -0.00002576      -0.00007639      -0.00022393       0.33937670
N       15.23393751      16.28545863      15.31537231      -0.00013371      -0.00004318      -0.00016245      -0.20775104
N       14.53113588      14.79363779      13.56643706       0.00020753       0.00007323      -0.00000798      -0.26080113
N       14.74111394      15.06486806      14.89539187      -0.00006097       0.00004185       0.00018240       0.51990144
N       15.25767080      14.09925370      15.73791910      -0.00011215       0.00034031       0.00014726      -0.20775614
N       14.12612421      18.30769996      15.28339779       0.00005552      -0.00004184       0.00012263      -0.13079165
N       15.87990348      11.95425428      15.16390463       0.00002167      -0.00003123       0.00000900      -0.13078926
N       13.47424529      14.96303417      14.37725272      -0.00006202       0.00010083       0.00012581      -0.26075907
