8
Properties=species:S:1:pos:R:3:forces:R:3:charge:R:1 formula=N8 topology=chain n_edges=7 n_rings=0 ff_energy=9.9678 mace_energy_eV=-11918.72928 delta_E_eV_atom=0.5215176739964136 sg=P-1 energy=-631.0201004844705 free_energy=-631.0201004844705 dipole="-8.274650445010962e-05 -2.1342468202311428e-05 -4.4180386116212e-05" pbc="F F F"
N       15.71210270      12.36256012      14.53073497      -0.00022172       0.00014463       0.00015649       0.28826978
N       16.02854360      11.30204792      14.31278447       0.00005073      -0.00004261      -0.00014912      -0.18806058
N       14.28881744      17.63728987      15.47018228       0.00008214       0.00011728      -0.00012045       0.28826508
N       14.64010223      15.41169824      15.31512524       0.00006074       0.00000785       0.00012542      -0.04506070
N       13.97274519      18.69786913      15.68835569      -0.00008977      -0.00021251      -0.00000227      -0.18806298
N       14.84068271      16.67824333      15.01489010      -0.00007522       0.00025782      -0.00000162      -0.05513639
N       15.36038359      14.58808628      14.68549290       0.00011394      -0.00019815       0.00010285      -0.04506948
N       15.15989934      13.32153094      14.98578177       0.00007914      -0.00007431      -0.00011130      -0.05514473
