10
Properties=species:S:1:pos:R:3:forces:R:3:charge:R:1 formula=N10 topology=bicyclic-3-6 n_edges=11 n_rings=2 ff_energy=277.5793 mace_energy_eV=-14898.660509 delta_E_eV_atom=0.49662678953995965 sg=P1 energy=-784.7254344601763 free_energy=-784.7254344601763 dipole="0.039708189357108306 0.1903525512722562 0.34621441531267844" pbc="F F F"
N       15.96669439      14.69789718      13.66756152       0.00015757      -0.00010318      -0.00002750      -0.09653191
N       14.14096158      15.36591764      16.14912323       0.00019166      -0.00004143       0.00028276       0.16179164
N       13.73656538      15.33380103      14.81310417      -0.00018052       0.00013091      -0.00040591      -0.17378081
N       14.11432537      14.18833687      15.39932316       0.00002765      -0.00010128       0.00017704      -0.17375758
N       15.08974727      16.66841498      12.91598585       0.00001313       0.00036546      -0.00010874      -0.20238454
N       15.86682629      13.75608231      14.49637187      -0.00017377       0.00016162      -0.00007679       0.27333814
N       16.36265779      12.81057689      14.89151701       0.00017744      -0.00032392       0.00014578      -0.20240172
N       15.22519794      15.70094069      13.50045342      -0.00015856      -0.00009718       0.00004083       0.27336323
N       15.71401047      16.53072926      17.41175517       0.00009289       0.00019860       0.00017129      -0.08424765
N       15.11699956      15.94494014      16.65170884      -0.00014750      -0.00018961      -0.00019877       0.22461120
