7
Properties=species:S:1:pos:R:3:forces:R:3:charge:R:1 formula=N7 topology=bicyclic-3-3 n_edges=8 n_rings=2 ff_energy=462.926 mace_energy_eV=-10425.870362 delta_E_eV_atom=0.9526259226349794 sg=P1 energy=-545.9213838332552 free_energy=-545.9213838332552 dipole="0.02951794796201846 0.03535701827510312 0.06203200761434214" pbc="F F F"
N       14.60354934      14.17345763      13.65899164       0.00010346      -0.00000710      -0.00003358       0.35356990
N       15.58308231      14.37880889      13.09389337      -0.00011374      -0.00001351      -0.00011296      -0.18871037
N       16.57597747      15.87565800      16.00184145       0.00014884      -0.00022695       0.00014274       0.11144144
N       15.23704546      15.60277802      16.79543635       0.00014153      -0.00017962       0.00006638       0.11143939
N       13.63484200      13.98163477      14.24703443      -0.00014231      -0.00002669      -0.00010799      -0.18869732
N       15.42705164      16.52376745      15.85946922      -0.00018208       0.00009803      -0.00016317      -0.09936231
N       16.18036949      14.71493968      16.50848456       0.00004430       0.00035584       0.00020858      -0.09968072
