9
Properties=species:S:1:pos:R:3:forces:R:3:charge:R:1 formula=N9 topology=bicyclic-3-4 n_edges=10 n_rings=2 ff_energy=331.6013 mace_energy_eV=-13411.744856 delta_E_eV_atom=0.16880479736528287 sg=P1 energy=-707.8330983748315 free_energy=-707.8330983748315 dipole="0.28809521940298854 0.1280160160292343 0.2843859496753937" pbc="F F F"
N       13.77502431      14.18477790      13.53255506       0.00006429      -0.00019095      -0.00011561      -0.03422145
N       14.69544587      14.08638544      14.40291523      -0.00010467       0.00000613       0.00029865      -0.13927156
N       13.81231307      14.89498158      16.82828531       0.00041189       0.00019293      -0.00013121      -0.02444749
N       14.71425839      16.08143139      13.43489374      -0.00005329       0.00001154      -0.00014905      -0.13706053
N       13.78678143      15.35144993      12.96634647      -0.00011628       0.00031415       0.00004366      -0.03068652
N       15.33736588      15.29317435      14.36062085       0.00028882      -0.00018932      -0.00009469       0.23252155
N       12.95155252      14.37553043      17.27039232      -0.00039066      -0.00020349       0.00007921       0.01923507
N       17.24677053      15.86815738      15.60089854       0.00038960       0.00008966       0.00007248      -0.07981937
N       16.18053238      15.70050353      15.21935465      -0.00048970      -0.00003066      -0.00000344       0.19375031
