9
Properties=species:S:1:pos:R:3:forces:R:3:charge:R:1 formula=N9 topology=bicyclic-3-5 n_edges=10 n_rings=2 ff_energy=245.6502 mace_energy_eV=-13412.059819 delta_E_eV_atom=0.13380893158978324 sg=P1 energy=-707.8367135529398 free_energy=-707.8367135529398 dipole="-0.18892160660877036 0.29246107942345034 0.23828367267204809" pbc="F F F"
N       13.42974073      16.12865489      14.78921212      -0.00005806      -0.00019939       0.00001450       0.18956967
N       14.02454095      15.23905488      14.09951568       0.00013466      -0.00006792      -0.00000491       0.23443688
N       15.55915580      14.27033652      13.07234743      -0.00011791       0.00009219       0.00002755      -0.03404087
N       13.80079505      13.89566483      14.19328383      -0.00012366      -0.00006972      -0.00015508      -0.13718609
N       15.16954771      15.43863622      13.38363810       0.00018566      -0.00016848      -0.00002863      -0.13708737
N       16.61152314      14.30946308      16.77709161       0.00026915       0.00010657       0.00031364       0.02292405
N       14.75767681      13.36681759      13.54652380      -0.00010795       0.00002552      -0.00018764      -0.03405921
N       15.75678128      14.88170246      16.39319471      -0.00035193       0.00020490      -0.00019785      -0.02411394
N       12.61649653      16.92297275      14.93031067       0.00017004       0.00007632       0.00021843      -0.08044312
