7
Properties=species:S:1:pos:R:3:forces:R:3:charge:R:1 formula=N7 topology=bicyclic-3-5 n_edges=8 n_rings=2 ff_energy=246.1878 mace_energy_eV=-10431.025974 delta_E_eV_atom=0.2161099411171108 sg=P1 energy=-550.8996822179006 free_energy=-550.8996822179006 dipole="-0.26637577816939206 0.20121750766730281 -0.2286147352621314" pbc="F F F"
N       13.04035257      16.86514928      14.26239029       0.00006328      -0.00003665       0.00005936      -0.07919178
N       14.55052815      15.33440926      15.20222205      -0.00028117       0.00004888       0.00019384       0.22814776
N       15.90254625      15.33196604      15.01522294      -0.00017147       0.00013445      -0.00023283      -0.13430117
N       14.23544026      14.35102121      16.09480816      -0.00000768       0.00001908      -0.00019171      -0.13430950
N       16.32879955      14.41087239      15.77763370       0.00040819      -0.00007215       0.00002171      -0.02951151
N       15.35204789      13.83611994      16.41010275      -0.00014363      -0.00005404       0.00018087      -0.02947157
N       13.71036316      15.95830729      14.47176162       0.00013249      -0.00003956      -0.00003123       0.17863777
