8
Properties=species:S:1:pos:R:3:forces:R:3:charge:R:1 formula=N8 topology=ring-4-substituted n_edges=8 n_rings=1 ff_energy=102.3676 mace_energy_eV=-11917.990544 delta_E_eV_atom=0.6138597434969597 sg=P1 energy=-627.4002067514224 free_energy=-627.4002067514224 dipole="-0.5448822259420235 0.16501919161381115 0.13769386802749023" pbc="F F F"
N       16.99207127      13.56249894      16.39679494      -0.00012885       0.00005660       0.00010978       0.00087586
N       16.02519685      15.30972486      15.20336880      -0.00015702      -0.00003418       0.00009433      -0.15672233
N       12.81913583      16.80510477      15.49483930       0.00007489      -0.00002630      -0.00004949      -0.08147255
N       14.98641784      16.26607522      14.83009674       0.00004372       0.00004371      -0.00004471       0.13838132
N       15.97176540      16.69757655      13.85810508      -0.00005886       0.00000600       0.00003456      -0.15707816
N       16.79006018      15.80389027      14.29109963       0.00004388       0.00005596      -0.00007640      -0.01458360
N       18.01097573      13.36991880      16.02876986       0.00013506      -0.00007153      -0.00009607      -0.00976488
N       13.86354589      16.55224186      15.16767233       0.00004718      -0.00003025       0.00002803       0.28036436
