8
Properties=species:S:1:pos:R:3:forces:R:3:charge:R:1 formula=N8 topology=bicyclic-3-4 n_edges=9 n_rings=2 ff_energy=331.7661 mace_energy_eV=-11915.702752 delta_E_eV_atom=0.8998337394714326 sg=P1 energy=-631.3464651905746 free_energy=-631.3464651905746 dipole="-0.08249153097931491 -0.017953978119732452 -0.06593788276839861" pbc="F F F"
N       13.35841876      14.86103602      13.45770947       0.00002716       0.00002812       0.00001756      -0.06746725
N       13.91423238      13.82360414      15.37188089       0.00001396       0.00021628      -0.00009805      -0.04004191
N       14.99798862      14.61436613      15.53398688       0.00020721      -0.00009465       0.00033547      -0.11861393
N       14.20788106      15.69995812      13.30677223      -0.00035793      -0.00024253      -0.00008171       0.29421511
N       14.84635671      16.54249762      12.92435172       0.00020627       0.00015331       0.00007033      -0.17804332
N       13.17972943      13.96307226      14.40500635       0.00013957      -0.00004221       0.00003777      -0.01277956
N       15.78490264      14.57267541      16.43314669      -0.00027431       0.00001044      -0.00029379       0.30183005
N       16.63901066      14.73606460      17.14433393       0.00003808      -0.00002875       0.00001241      -0.17909919
