9
Properties=species:S:1:pos:R:3:forces:R:3:charge:R:1 formula=N9 topology=bicyclic-4-4-5 n_edges=11 n_rings=3 ff_energy=185.2932 mace_energy_eV=-13407.425676 delta_E_eV_atom=0.6487136826256119 sg=P1 energy=-705.8560138446593 free_energy=-705.8560138446593 dipole="0.21314380683196568 -0.15981933363091635 0.28863843789235133" pbc="F F F"
N       15.89136091      16.37620322      15.08701511       0.00008291       0.00001029      -0.00000709      -0.05684171
N       15.36219378      13.73334375      13.55654963       0.00013221      -0.00026852       0.00026465      -0.11082577
N       14.86692948      16.36122052      15.83520613      -0.00003217       0.00000860       0.00007695      -0.05684171
N       13.62056869      13.70787181      14.82854132       0.00021698      -0.00026728       0.00020273      -0.11082577
N       16.35120108      15.12141462      15.52371993      -0.00026212      -0.00016699      -0.00008532       0.02395226
N       15.16696218      15.10409468      16.38862596       0.00000163      -0.00016313      -0.00027795       0.02395226
N       15.77275657      14.02443587      14.78823597      -0.00044591       0.00019071       0.00011976       0.13779105
N       14.66328096      14.00820937      15.59853880       0.00024603       0.00020083      -0.00038560       0.13779105
N       14.10876475      13.50708626      13.66438694       0.00006043       0.00045549       0.00009186       0.01184835
