5
Properties=species:S:1:pos:R:3:forces:R:3:charge:R:1 formula=N5 topology=ring-4-substituted n_edges=5 n_rings=1 ff_energy=107.8351 mace_energy_eV=-7448.555794 delta_E_eV_atom=0.6515189413591997 sg=P1 energy=-390.14380029148947 free_energy=-390.14380029148947 dipole="-0.06242621473086761 -0.0124694037521362 0.02585628448092715" pbc="F F F"
N       14.69824962      14.83944431      15.30547856      -0.00018723       0.00009350      -0.00028530       0.32153114
N       15.76054126      14.17005370      14.47146450       0.00002788       0.00032904      -0.00011998      -0.13435960
N       15.74091896      15.92750102      15.27210468      -0.00002769       0.00004413      -0.00022025      -0.13435217
N       13.66255304      14.63385259      15.73138186       0.00013790      -0.00014377       0.00027201      -0.10550576
N       16.50542596      15.19904362      14.56044960       0.00004914      -0.00032290       0.00035352       0.05268640
