7
Properties=species:S:1:pos:R:3:forces:R:3:charge:R:1 formula=N7 topology=bicyclic-4-4 n_edges=8 n_rings=2 ff_energy=172.1467 mace_energy_eV=-10426.693897 delta_E_eV_atom=0.8349781860206349 sg=P1 energy=-549.3370244410398 free_energy=-549.3370244410398 dipole="-0.37342818174906584 -0.04213545589134956 0.5120702374416496" pbc="F F F"
N       14.37401225      15.30285714      16.41808573       0.00001876       0.00003719      -0.00008462       0.32065920
N       15.04657457      14.49608181      12.96675072      -0.00013381      -0.00002132       0.00006070      -0.13148432
N       14.25925429      14.84945614      15.31304293       0.00015562       0.00000876      -0.00019660      -0.08158776
N       15.07413459      14.97830965      14.30012838      -0.00013139      -0.00009371      -0.00000076       0.25106640
N       16.16369370      15.09615664      12.79151417      -0.00005025      -0.00002397       0.00015264      -0.04315148
N       16.22649244      15.58984026      14.09834097       0.00014045       0.00013953       0.00004412      -0.19156958
N       14.28081644      15.62164121      17.48974000       0.00000063      -0.00004650       0.00002451      -0.12393247
