7
Properties=species:S:1:pos:R:3:forces:R:3:charge:R:1 formula=N7 topology=bicyclic-4-5 n_edges=8 n_rings=2 ff_energy=178.0795 mace_energy_eV=-10428.205201 delta_E_eV_atom=0.6190775182769812 sg=P1 energy=-549.326605939159 free_energy=-549.326605939159 dipole="-0.3655525659861858 0.006485766900037057 0.031062958633736273" pbc="F F F"
N       13.58867781      14.42612375      14.63070653      -0.00015450      -0.00022217      -0.00006249       0.31161421
N       17.25906247      15.16521803      15.63295956       0.00011519       0.00014537      -0.00016574      -0.05036050
N       14.08303186      15.01261989      15.56086697       0.00008704       0.00029153       0.00017743      -0.08678028
N       15.33960877      15.24242042      15.86817648       0.00005318      -0.00032521       0.00013144       0.13288184
N       12.85049056      13.96779611      13.92394334       0.00009397       0.00002419      -0.00009518      -0.14383113
N       16.31822789      15.92581711      15.14229313       0.00010655       0.00003022      -0.00002348      -0.08166616
N       16.37246339      14.33391468      16.11035804      -0.00030144       0.00005607       0.00003802      -0.08185796
