10
Properties=species:S:1:pos:R:3:forces:R:3:charge:R:1 formula=N10 topology=ring-4-substituted n_edges=10 n_rings=1 ff_energy=112.6527 mace_energy_eV=-14898.751911 delta_E_eV_atom=0.487486600698503 sg=P1 energy=-784.383645200687 free_energy=-784.383645200687 dipole="0.05634707856763633 0.49302973797395244 0.3087738351194827" pbc="F F F"
N       15.23091233      14.37932903      13.57122441      -0.00004808      -0.00008256      -0.00009453      -0.16626678
N       13.03133611      12.89610186      16.73212735      -0.00008511      -0.00006502       0.00008599       0.01736397
N       14.15368114      13.77600142      13.19574475       0.00026309      -0.00008718      -0.00002773      -0.01764717
N       13.43365873      13.89319303      16.50846992       0.00008327       0.00006064      -0.00008332      -0.02176469
N       14.74384083      17.06155108      15.81379931       0.00000366       0.00004859       0.00005776      -0.07353108
N       13.31354509      14.59216839      13.73351230      -0.00020709       0.00017965       0.00011853      -0.16637520
N       16.31320292      13.93681070      15.84190890      -0.00007669       0.00010230       0.00002439      -0.02384859
N       14.59251058      16.25568965      15.04920236      -0.00007197      -0.00005451      -0.00003703       0.29696267
N       16.83377774      12.97152178      15.91659337       0.00007415      -0.00010982      -0.00003554       0.00716883
N       14.42290802      15.39940446      14.21357910       0.00006476       0.00000792      -0.00000851       0.14793803
