6
Properties=species:S:1:pos:R:3:forces:R:3:charge:R:1 formula=N6 topology=ring-3-substituted n_edges=6 n_rings=1 ff_energy=276.8248 mace_energy_eV=-8939.010308 delta_E_eV_atom=0.5276264338187957 sg=P1 energy=-470.9118264764325 free_energy=-470.9118264764325 dipole="-0.15159525814659808 -0.16460449019066511 -0.03187174471061929" pbc="F F F"
N       14.06928145      14.70662511      14.54978072      -0.00004496       0.00002017      -0.00004845      -0.01604606
N       13.94108495      13.28281538      14.39066827       0.00001066       0.00002050      -0.00003149       0.02211284
N       13.23651596      13.76540516      15.24948829      -0.00001327       0.00003713      -0.00000242       0.02211318
N       15.19965469      15.02517604      15.29812950       0.00005942      -0.00013507       0.00012375      -0.14866472
N       15.79860000      16.05152146      15.21276333       0.00000833      -0.00001219       0.00001357       0.31004853
N       16.51678373      16.90579612      15.32191209      -0.00002019       0.00006946      -0.00005497      -0.18956378
