5
Properties=species:S:1:pos:R:3:initial_charges:R:1:forces:R:3:charge:R:1 energy=-122.31182721494528 free_energy=-122.31182721494528 dipole="-0.0006734158499838281 -0.0002868926415615571 0.00020630521863624095" pbc="F F F"
N       -0.00068178      -0.00028944       0.00019730       1.00000000       0.00013334       0.00004773       0.00018218      -0.22303338
H        0.86488032       0.44354072       0.33762031       0.00000000      -0.00001923      -0.00006721       0.00000161       0.30575809
H        0.23453131      -0.74544600      -0.67021182       0.00000000      -0.00003736       0.00007568      -0.00011230       0.30575993
H       -0.58985313       0.70525550      -0.46360859       0.00000000      -0.00004848      -0.00010498      -0.00008937       0.30575994
H       -0.51226536      -0.40450303       0.79702005       0.00000000      -0.00002827       0.00004878       0.00001789       0.30575542
