5
Properties=species:S:1:pos:R:3:initial_charges:R:1:forces:R:3:charge:R:1 energy=-122.3118272173989 free_energy=-122.3118272173989 dipole="-1.1015713561404207e-15 4.479723514971044e-16 5.87504723274891e-17" pbc="F F F"
N        0.00000000      -0.00000000       0.00000000       1.00000000      -0.00000000      -0.00000000       0.00000000      -0.22302542
H        0.59442676       0.59442676       0.59442676       0.00000000       0.00007086       0.00007086       0.00007086       0.30575636
H        0.59442676      -0.59442676      -0.59442676       0.00000000       0.00007086      -0.00007086      -0.00007086       0.30575636
H       -0.59442676       0.59442676      -0.59442676       0.00000000      -0.00007086       0.00007086      -0.00007086       0.30575636
H       -0.59442676      -0.59442676       0.59442676       0.00000000      -0.00007086      -0.00007086       0.00007086       0.30575636
