8
Properties=species:S:1:pos:R:3:forces:R:3:charge:R:1 formula=N8 topology=bicyclic-3-4 n_edges=9 n_rings=2 ff_energy=312.8042 mace_energy_eV=-11917.769735 delta_E_eV_atom=0.6414608105692423 sg=P1 energy=-627.7435820152282 free_energy=-627.7435820152282 dipole="0.05618724786755037 0.2811105798268956 -0.1500855269579179" pbc="F F F"
N       15.14733199      15.12614672      15.11091530       0.00003253       0.00021877      -0.00007601      -0.12646622
N       15.40925761      12.41284077      15.89682502      -0.00000081      -0.00001059      -0.00003236      -0.04751534
N       14.20544487      12.49530328      15.60061299       0.00001460      -0.00001177      -0.00002856      -0.04751526
N       15.36461520      17.39795180      14.86025878       0.00002205       0.00010041      -0.00005868      -0.15005637
N       15.28938972      14.08931611      14.24494107      -0.00000987       0.00003299       0.00004791       0.09640792
N       14.44692895      12.99292656      14.25654881       0.00001972       0.00000112       0.00003178      -0.02011128
N       15.29468946      16.28231759      14.83388408      -0.00004673      -0.00033599       0.00009666       0.31536738
N       15.88228794      12.89460265      14.60973514      -0.00003149       0.00000506       0.00001927      -0.02011082
