10
Properties=species:S:1:pos:R:3:forces:R:3:charge:R:1 formula=N10 topology=bicyclic-3-3 n_edges=11 n_rings=2 ff_energy=506.3892 mace_energy_eV=-14900.726002 delta_E_eV_atom=0.29007748064645966 sg=P1 energy=-788.6253881136676 free_energy=-788.6253881136676 dipole="-0.10435214874776579 -0.06027949247019838 -0.032248206857833916" pbc="F F F"
N       16.20278093      15.23630641      11.61872000      -0.00000989      -0.00002184       0.00001222      -0.18827248
N       15.86279085      15.14962488      12.68387583       0.00001005       0.00000858      -0.00019908       0.30930113
N       13.97290717      15.67847373      15.22958383      -0.00010758       0.00001267      -0.00015282      -0.13224603
N       14.13084217      17.04946075      17.07063389       0.00001403      -0.00017579      -0.00017364      -0.18168397
N       14.20706369      16.33800605      16.20615999       0.00002145       0.00024175       0.00033346       0.29090216
N       15.08499948      13.65204240      15.41958239      -0.00010577      -0.00006480      -0.00005845      -0.13224092
N       14.70625908      14.69713244      14.62671892      -0.00001347      -0.00004424      -0.00002832       0.10291890
N       15.68733236      13.64062650      16.45908983       0.00015271      -0.00006293       0.00029604       0.29090475
N       15.78341683      15.21790629      13.87627887       0.00007505       0.00005639       0.00016804      -0.17789112
N       16.17433130      13.32575642      17.41980910      -0.00003658       0.00005020      -0.00019745      -0.18169242
