6
Properties=species:S:1:pos:R:3:initial_charges:R:1:initial_magmoms:R:1:forces:R:3:charge:R:1 N6=T charge=1 mult=2 PG=C2v |=T B3LYP/aug-cc-pVDZ=T src:=T B=T p.31=T (B3LYP/aug-cc-pVDZ,=T 2Bg)=T energy=-458.9743866805514 free_energy=-458.9743866805514 dipole="2.850089493549026 -0.16883145334892175 -2.6966091355387036e-16" pbc="F F F"
N        0.04899083       0.03372057       0.00000000       1.00000000       1.00000000      -0.00012844      -0.00012686      -0.00000000       0.06394983
N        1.16359323      -0.02676934      -0.00000000       0.00000000       0.00000000      -0.00004785       0.00001745      -0.00000000       0.35255820
N        2.34891993       0.22422085      -0.00000000       0.00000000       0.00000000       0.00007824       0.00046991       0.00000000       0.08348910
N        3.35122766      -0.56188148      -0.00000000       0.00000000       0.00000000      -0.00003831      -0.00046933       0.00000000       0.08348992
N        4.53655536      -0.31089185      -0.00000000       0.00000000       0.00000000       0.00005684      -0.00001872       0.00000000       0.35255726
N        5.65115798      -0.37138175       0.00000000       0.00000000       0.00000000       0.00007953       0.00012755      -0.00000000       0.06395569
