4
Properties=species:S:1:pos:R:3:forces:R:3:charge:R:1 formula=N4 topology=ring-3-subst integrity=OK energy_eV=-5952.621738 delta_E_eV_atom=2.334 sg=P1 energy=-313.70783570926835 free_energy=-313.70783570926835 dipole="3.603386219834183e-05 -0.0001450005287815667 -4.330255452271643e-05" pbc="F F F"
N       -0.73774880      -0.11062270      -1.35095284      -0.00030636       0.00000099       0.00026598      -0.00052047
N        0.94119239      -0.59943622       1.06422581       0.00028993       0.00025135      -0.00012993      -0.00054294
N        0.38837139      -0.22599043       1.93665349      -0.00026024      -0.00021197      -0.00000079       0.00054285
N       -0.59181500       0.93604934      -1.64992645       0.00027667      -0.00004038      -0.00013526       0.00052056
