10
Properties=species:S:1:pos:R:3:forces:R:3:charge:R:1 formula=N10 topology=bicyclic-3-3 n_edges=11 n_rings=2 ff_energy=558.6924 mace_energy_eV=-14897.084536 delta_E_eV_atom=0.6542241180243309 sg=P1 energy=-783.9936375674827 free_energy=-783.9936375674827 dipole="0.029868537919150794 -0.007523722278050546 -0.033495113395462135" pbc="F F F"
N       14.81581885      15.49429091      15.16509638      -0.00028018       0.00003814       0.00012749      -0.14413092
N       16.64838146      13.19313081      15.84371703       0.00032855      -0.00008398      -0.00024393       0.01571492
N       13.82636477      16.96851733      16.62521907       0.00005398       0.00027245       0.00009117      -0.16749346
N       14.20109389      16.12427872      15.99078075       0.00008330      -0.00029442      -0.00026163       0.29814184
N       13.51130030      14.04321939      12.86068904       0.00015440       0.00006609      -0.00019298       0.01570082
N       12.82176713      14.69254956      13.62166877      -0.00003303      -0.00007804       0.00017743       0.01559784
N       15.19818045      13.23497823      15.81315551      -0.00013460       0.00019082       0.00016614      -0.04337676
N       16.10180052      13.80273972      16.74138693      -0.00022211      -0.00004903       0.00006292       0.01558216
N       13.56817463      13.67719422      14.26380659       0.00003364       0.00007788       0.00006507      -0.04339933
N       14.75263191      14.17713448      14.85559930       0.00001604      -0.00013992       0.00000832       0.03766289
