4
Properties=species:S:1:pos:R:3:forces:R:3:charge:R:1 formula=N4 topology=ring-3-subst integrity=OK energy_eV=-5958.570317 delta_E_eV_atom=0.8469 sg=P1 energy=-311.3566822142836 free_energy=-311.3566822142836 dipole="-0.18596785615979555 -0.08506741981369693 -0.07549325983573686" pbc="F F F"
N        0.28049830       0.12828901       0.11411220       0.00005983       0.00000866      -0.00017454       0.37767263
N        1.25850718       0.57562248       0.51159824       0.00004794       0.00003870       0.00008427      -0.26223768
N       -0.58097092      -0.22896036      -0.91508725      -0.00000785      -0.00000510       0.00010947      -0.05775094
N       -0.95803456      -0.47495114       0.28937680      -0.00009992      -0.00004226      -0.00001921      -0.05768401
