9
Properties=species:S:1:pos:R:3:forces:R:3:charge:R:1 formula=N9 topology=bicyclic-3-5 n_edges=10 n_rings=2 ff_energy=246.5773 mace_energy_eV=-13409.712581 delta_E_eV_atom=0.39461312166758944 sg=P1 energy=-709.4787650528276 free_energy=-709.4787650528276 dipole="-0.02964769092526994 0.01715818223913405 0.020607427493724993" pbc="F F F"
N       14.82674509      16.03255276      13.77504456       0.00011413       0.00001854      -0.00037186      -0.00919587
N       16.68863368      14.07228250      13.14304151       0.00004847      -0.00035663       0.00017228       0.28726548
N       12.23716517      15.38480528      16.59221899      -0.00007540       0.00019811       0.00008634      -0.16919935
N       15.21210053      15.54201653      14.90266152       0.00020344      -0.00001575      -0.00024129      -0.07977902
N       15.39959676      15.91334985      12.68390166      -0.00017518       0.00006656       0.00027549      -0.04432770
N       16.27324723      14.95332542      12.43853813       0.00000457       0.00022550      -0.00015809      -0.05947713
N       13.25404303      15.44450797      16.10635804      -0.00014147      -0.00022842       0.00000395       0.27790385
N       17.22200541      13.17698477      13.57148802      -0.00000815       0.00013426       0.00000177      -0.17968855
N       14.44390701      15.49245930      15.92853120       0.00002959      -0.00004217       0.00023141      -0.02350173
