10
Properties=species:S:1:pos:R:3:forces:R:3:charge:R:1 formula=N10 topology=branched-tree n_edges=9 n_rings=0 ff_energy=23.2342 mace_energy_eV=-14900.895863 delta_E_eV_atom=0.27309143273714653 sg=P1 energy=-788.6863482198387 free_energy=-788.6863482198387 dipole="0.06466873117444201 -0.13899694950920555 -0.07075310628610676" pbc="F F F"
N       16.97163081      15.70437165      17.00268908      -0.00015377      -0.00015678      -0.00029961       0.30081545
N       17.18426554      13.83522204      12.30514478      -0.00001427       0.00004337       0.00015559      -0.17623165
N       17.30023458      16.22089781      17.94345129       0.00012720       0.00018670       0.00034265      -0.19031672
N       16.80634359      13.87745571      13.35871203       0.00011293       0.00005012      -0.00040098       0.30767240
N       13.71913102      14.76702573      15.87248778       0.00010647      -0.00005311      -0.00007431       0.30081384
N       16.49905632      13.58785323      14.48440424      -0.00012610      -0.00016018       0.00019914      -0.11633975
N       16.77882530      15.38995862      15.86487509       0.00000862      -0.00001471      -0.00004719      -0.16644742
N       15.94486068      14.33048953      15.46313723       0.00011110       0.00004531       0.00006935       0.09679428
N       14.65404206      14.77747972      15.12650704      -0.00020655       0.00003584       0.00008615      -0.16644042
N       12.71137248      14.89848250      16.34889382       0.00003437       0.00002343      -0.00003079      -0.19032001
