10
Properties=species:S:1:pos:R:3:forces:R:3:charge:R:1 formula=N10 topology=bicyclic-4-5 n_edges=11 n_rings=2 ff_energy=140.8182 mace_energy_eV=-14897.404618 delta_E_eV_atom=0.6222159214075873 sg=P1 energy=-785.5815673643696 free_energy=-785.5815673643696 dipole="-0.05646175406902507 0.3545940562949038 0.6728000326579702" pbc="F F F"
N       15.67156309      14.24522016      16.10948409      -0.00009985       0.00015109      -0.00017765      -0.05938168
N       16.33512186      12.55949192      14.46070603      -0.00001530       0.00030597       0.00018065      -0.15260452
N       15.56149219      14.20960582      13.69904714       0.00004766      -0.00003942      -0.00011074      -0.23661673
N       15.12298382      15.41431418      16.27910230       0.00018395      -0.00016755       0.00016212      -0.00769277
N       15.82173378      13.82938027      14.94508905       0.00002490      -0.00018878       0.00023239       0.30444837
N       14.53270236      16.72575930      18.07356409       0.00003376       0.00013158       0.00009125      -0.12892933
N       16.04650407      12.98473095      13.29643487      -0.00011532       0.00006559      -0.00005536      -0.00675239
N       14.87364050      15.97804872      17.30844385      -0.00006628      -0.00027082      -0.00031842       0.31173845
N       12.59482681      14.79921060      13.17727706      -0.00006340      -0.00005625      -0.00008278       0.00136386
N       13.18647328      14.78680976      14.10438793       0.00006988       0.00006859       0.00007853      -0.02557326
