8
Properties=species:S:1:pos:R:3:forces:R:3:charge:R:1 formula=N8 topology=ring-6-substituted n_edges=8 n_rings=1 ff_energy=23.7336 mace_energy_eV=-11920.033581 delta_E_eV_atom=0.35848013602821993 sg=P1 energy=-631.0770091919258 free_energy=-631.0770091919258 dipole="-0.0069356631258700105 -0.021578195961520732 0.0745072071831289" pbc="F F F"
N       14.14906954      16.06253398      15.64537490       0.00014517       0.00014374       0.00008403      -0.06293520
N       15.53212909      13.66148911      15.07819720       0.00021904       0.00012229       0.00013653      -0.06294309
N       14.29330069      16.32530743      14.48247549       0.00010903       0.00012182      -0.00006495       0.26726028
N       14.28864843      16.80756349      13.46484829      -0.00009611      -0.00009814      -0.00000706      -0.17788494
N       15.59775957      14.06134043      13.94771074       0.00016384       0.00012373      -0.00008242       0.26726094
N       15.05164020      14.05080685      16.23345907      -0.00015255      -0.00012717      -0.00006979      -0.02644234
N       14.44816819      15.09846461      16.48093703      -0.00017783      -0.00015233      -0.00003944      -0.02643306
N       15.79641010      14.19125547      12.84688468      -0.00021061      -0.00013394       0.00004309      -0.17788259
