6
 energy: -17.354948238686 gnorm: 0.000784832627 xtb: 6.6.1 (8d0f1dd)
N            1.18619869519049       -0.14037410437764        0.49308761851857
N            0.53787129194932        0.93094926976378        0.51919662623891
N           -0.61149485189758        1.13696492285651        0.06426309017939
N           -1.29008674283083       -0.04026456774128       -0.06176607317074
N           -0.53744667314358       -0.93089041310034       -0.52074448051481
N            0.71495685831261       -0.95638404160937       -0.49403490438267
