8
Properties=species:S:1:pos:R:3:forces:R:3:charge:R:1 formula=N8 topology=ring-5-substituted n_edges=8 n_rings=1 ff_energy=34.0195 mace_energy_eV=-11919.193113 delta_E_eV_atom=0.46353852434845066 sg=P1 energy=-629.8439571316051 free_energy=-629.8439571316051 dipole="0.35968248923714413 -0.22252511464573566 0.09035797418931957" pbc="F F F"
N       16.64208519      14.11425073      15.58840760      -0.00002742       0.00007378      -0.00003012       0.33915023
N       15.10644139      15.38539909      14.46134710       0.00006784       0.00003129       0.00000799       0.36304386
N       12.30328447      15.97620425      16.39688889       0.00000284      -0.00003269      -0.00001785      -0.19424882
N       13.30650390      15.61652202      16.04615430      -0.00017553       0.00009037       0.00005182       0.32260144
N       14.70036961      15.97902392      13.56904298      -0.00003643       0.00002468      -0.00008564      -0.28325465
N       14.38140444      15.17004722      15.81139821       0.00016391      -0.00007287       0.00005543      -0.27969194
N       16.28724259      14.71585999      14.61735942      -0.00003271      -0.00004413      -0.00003864      -0.12398358
N       17.13745558      13.51412580      16.39071091       0.00003750      -0.00007043       0.00005701      -0.14361654
