6
Properties=species:S:1:pos:R:3:forces:R:3:charge:R:1 formula=N6 topology=bicyclic-4-4 n_edges=7 n_rings=2 ff_energy=180.8628 mace_energy_eV=-8936.620685 delta_E_eV_atom=0.9258968949386599 sg=P1 energy=-469.67024441325947 free_energy=-469.67024441325947 dipole="-0.08821748806878138 0.07611724407961193 0.07453132438079145" pbc="F F F"
N       14.13602001      15.25263176      14.93906244      -0.00000116      -0.00001798      -0.00002721       0.07380022
N       15.18973095      15.56730958      15.86400663      -0.00002839       0.00013274       0.00018449       0.07378516
N       14.94604819      15.84359408      13.95775038      -0.00002112       0.00004342      -0.00009518      -0.03688133
N       14.37884934      13.90910355      15.26205058      -0.00005980      -0.00008827      -0.00000649      -0.03688133
N       15.86520280      16.11808928      14.76458325       0.00008837       0.00007821      -0.00010415      -0.03691136
N       15.29800405      14.18359907      16.06888323       0.00002210      -0.00014812       0.00004854      -0.03691136
