10
Properties=species:S:1:pos:R:3:forces:R:3:charge:R:1 formula=N10 topology=bicyclic-3-4 n_edges=11 n_rings=2 ff_energy=381.2271 mace_energy_eV=-14897.861092 delta_E_eV_atom=0.5765685128390032 sg=P1 energy=-785.4689192285216 free_energy=-785.4689192285216 dipole="0.3883187779690816 -0.14571253973985723 0.33283450130615205" pbc="F F F"
N       17.05971064      14.16528169      16.62281704       0.00008839       0.00009950      -0.00009363       0.05282932
N       14.58497828      16.06169506      14.23389011      -0.00033905      -0.00007632      -0.00009694       0.31916339
N       17.68934384      14.98288312      15.99141862      -0.00016872      -0.00018076      -0.00002197       0.01518208
N       13.65774972      14.62852105      13.12432714      -0.00006435      -0.00028025       0.00001187      -0.00103224
N       14.94728134      14.85849031      14.71132520      -0.00001153      -0.00006818      -0.00019944       0.05383946
N       15.09423673      16.78455895      15.19272672       0.00004382       0.00038610       0.00000806      -0.23806429
N       15.34498978      15.60653813      15.88290065       0.00004876      -0.00029623       0.00006018       0.08281161
N       14.25883589      13.94783582      13.99942984      -0.00002121       0.00038857      -0.00010162      -0.11358217
N       13.79007251      15.91862023      13.21941737       0.00027659      -0.00008152       0.00012459      -0.16670131
N       16.43693889      15.43314603      16.63704873       0.00014731       0.00010909       0.00030891      -0.00444585
