10
Properties=species:S:1:pos:R:3:forces:R:3:charge:R:1 formula=N10 topology=bicyclic-3-6 n_edges=11 n_rings=2 ff_energy=307.3154 mace_energy_eV=-14901.520917 delta_E_eV_atom=0.21058597026535608 sg=P1 energy=-788.320325632727 free_energy=-788.320325632727 dipole="-0.056956327484179045 0.0173458054665588 -0.027397552298572072" pbc="F F F"
N       16.79910881      14.07276520      16.28043497       0.00040799       0.00000434      -0.00008177       0.00081813
N       14.70077341      14.48647050      13.69568549       0.00009051      -0.00006631      -0.00003387      -0.08897635
N       15.55554996      13.07481567      12.09260721       0.00003658      -0.00002255       0.00012863      -0.18605961
N       15.00581573      13.75128874      12.80398302       0.00002872       0.00004544       0.00013798       0.29717544
N       14.16052209      17.38926436      17.66271628      -0.00004413       0.00014956       0.00014448      -0.18608894
N       14.02432239      16.78669715      16.72236716      -0.00005400      -0.00017005      -0.00046077       0.29717156
N       13.25029492      15.72941713      14.87124741       0.00019955       0.00011548       0.00021507      -0.01800340
N       15.73223620      13.81677693      16.22043203      -0.00028434      -0.00028854      -0.00028193      -0.00927916
N       14.18251160      16.08960865      15.76439719      -0.00031300       0.00018141       0.00016037      -0.08864727
N       13.48576382      15.00108087      13.93127586      -0.00006789       0.00005122       0.00007181      -0.01811040
