10
Properties=species:S:1:pos:R:3:forces:R:3:charge:R:1 formula=N10 topology=bicyclic-3-3-5 n_edges=12 n_rings=3 ff_energy=483.2709 mace_energy_eV=-14898.158609 delta_E_eV_atom=0.5468168533038806 sg=P1 energy=-786.3117262020271 free_energy=-786.3117262020271 dipole="-0.09471827697899651 0.02158649575642641 -0.23547009218333517" pbc="F F F"
N       16.06518356      15.32957669      15.37234402       0.00015762      -0.00002954      -0.00002678       0.23976065
N       14.27136704      15.48030400      14.12996608      -0.00019367      -0.00014867      -0.00003789      -0.04237243
N       12.53346851      16.15767861      12.78241442       0.00015690      -0.00006044       0.00001889      -0.15773917
N       15.29934524      16.08247741      14.69543251       0.00010598       0.00013323       0.00005059      -0.11007466
N       13.42556857      15.97636203      13.44371485      -0.00015320       0.00010661      -0.00005514       0.30344694
N       16.19610111      14.01932903      15.38218563      -0.00018156       0.00005622      -0.00011167      -0.08626929
N       17.01687749      13.63741840      16.27178429       0.00022109      -0.00010942       0.00010838      -0.08188031
N       17.10619505      15.94584526      16.20554120      -0.00008953      -0.00003856       0.00018272      -0.06453909
N       16.89459770      15.65763976      17.55018523       0.00027501      -0.00012235      -0.00022083      -0.15470760
N       17.51563345      14.70239118      16.88127669      -0.00029865       0.00021291       0.00009173       0.15437495
