9
Properties=species:S:1:pos:R:3:forces:R:3:charge:R:1 formula=N9 topology=bicyclic-3-7 n_edges=10 n_rings=2 ff_energy=266.5275 mace_energy_eV=-13410.782969 delta_E_eV_atom=0.27568112773587927 sg=P1 energy=-708.5270427650069 free_energy=-708.5270427650069 dipole="0.11649158648906892 -0.07270362145430273 0.0319703854618896" pbc="F F F"
N       16.80202030      14.41962937      17.67134666      -0.00004411      -0.00005464      -0.00024078      -0.18007383
N       15.41634034      13.64352575      14.63300994       0.00008740       0.00003467       0.00017469      -0.08831389
N       15.31432829      16.69435313      15.78092958      -0.00000539      -0.00005950      -0.00001220      -0.01814010
N       13.46009719      14.61595846      14.03076143      -0.00009188       0.00005813       0.00001655       0.27944411
N       14.72671422      17.60129160      15.58168177       0.00000177       0.00005204       0.00002703       0.00785849
N       16.41799264      14.11306324      16.65261618       0.00011808       0.00013993       0.00038990       0.27684622
N       14.36305186      14.43588015      14.79502008       0.00002022      -0.00003623      -0.00012759      -0.07492491
N       16.27653891      13.59845151      15.57386357      -0.00022393      -0.00008218      -0.00029324      -0.01117794
N       12.51396200      14.97337477      13.52541542       0.00013783      -0.00005221       0.00006564      -0.19151815
