8
 energy: -23.236425493671 gnorm: 0.000563225698 xtb: 6.6.1 (8d0f1dd)
N            1.19254932084322        0.02127375438232        0.00000019086016
N            0.38864359572126        1.12753021854072        0.00000013958936
N           -0.83876844358039        0.72046763037022        0.00000011757052
N           -0.77419040312276       -0.56245730941943       -0.00000037045128
N            0.42603830009886       -1.02023688284600        0.00000045514122
N            2.41996136064084        0.42833634346041       -0.00000045894681
N            2.35538331736154        1.71126128172004        0.00000036193503
N            1.15515461284165        2.16904085690368       -0.00000023245735
