4
Properties=species:S:1:pos:R:3:initial_charges:R:1:initial_magmoms:R:1:forces:R:3:charge:R:1 N4=T charge=-1 mult=2 PG=D2h |=T B3LYP/aug-cc-pVDZ=T src:=T B=T p.23=T (B3LYP/aug-cc-pVDZ)=T energy=-318.3917820664627 free_energy=-318.3917820664627 dipole="-0.7261999999627827 -0.6567999999663094 2.370235148279911e-11" pbc="F F F"
N        0.01763075      -0.00484270       0.00000000      -1.00000000       1.00000000      -0.00001717      -0.00002683      -0.00000000      -0.25000410
N        1.43476943      -0.00484287       0.00000000       0.00000000       0.00000000      -0.00002594       0.00001267       0.00000000      -0.24999590
N        1.43476925       1.31844270       0.00000000       0.00000000       0.00000000       0.00001717       0.00002683      -0.00000000      -0.25000410
N        0.01763057       1.31844287      -0.00000000       0.00000000       0.00000000       0.00002594      -0.00001267       0.00000000      -0.24999590
