10
Properties=species:S:1:pos:R:3:forces:R:3:charge:R:1 formula=N10 topology=bicyclic-3-5-6 n_edges=12 n_rings=3 ff_energy=362.9173 mace_energy_eV=-14900.872594 delta_E_eV_atom=0.27541827007553366 sg=P1 energy=-786.3078530805728 free_energy=-786.3078530805728 dipole="0.01752755837862623 0.4169323397700739 -0.4551413646797404" pbc="F F F"
N       14.70855709      17.16057923      14.20317137       0.00011932       0.00011286       0.00021975       0.04313706
N       14.11289224      13.83438322      16.47301927      -0.00000404      -0.00007239       0.00006650      -0.04958983
N       16.03547729      14.67918442      16.20579037      -0.00004360       0.00009758      -0.00012511      -0.10161650
N       14.48045655      16.27795139      13.41613407      -0.00012178      -0.00016595      -0.00026257       0.06848374
N       15.19278446      15.14117865      15.31072138       0.00000356      -0.00004065       0.00004704       0.26334054
N       15.58041919      12.89194314      13.57117676      -0.00024446      -0.00009914       0.00003564      -0.02073862
N       15.35162673      13.87621140      16.91480173       0.00003394      -0.00000613       0.00000383      -0.04740505
N       15.56409828      15.99382294      14.30911146       0.00008692      -0.00000690       0.00009692      -0.04259661
N       13.99108402      14.61530740      15.47862275      -0.00007400       0.00007779      -0.00003320      -0.13273144
N       15.57083507      11.79793582      13.66459515       0.00024415       0.00010293      -0.00004880       0.01971670
