10
Properties=species:S:1:pos:R:3:forces:R:3:charge:R:1 formula=N10 topology=bicyclic-5-5 n_edges=11 n_rings=2 ff_energy=170.2073 mace_energy_eV=-14902.579736 delta_E_eV_atom=0.10470414247129156 sg=P1 energy=-788.8152033542891 free_energy=-788.8152033542891 dipole="0.13989123928486608 0.36935524372012124 -0.46632248793448966" pbc="F F F"
N       14.77530883      16.13854783      14.60672048      -0.00003319       0.00003154      -0.00008527      -0.11381931
N       13.68760712      14.21610126      17.10540021       0.00000131      -0.00000262       0.00000270      -0.05643095
N       14.60249996      15.26701744      15.59249777       0.00004505       0.00003479       0.00000235       0.29141107
N       15.76456169      16.24752783      13.93769198       0.00007426       0.00005605      -0.00010490       0.33835111
N       13.46863834      15.13623243      16.24921381      -0.00004837      -0.00003919      -0.00002653      -0.11627279
N       14.92020297      13.78414100      16.98788425       0.00003260      -0.00001866       0.00003326      -0.05474051
N       15.51454679      14.41898146      16.05685865      -0.00001602      -0.00005924       0.00009586      -0.15184003
N       16.01555511      12.26767778      13.64084099      -0.00022595      -0.00010395      -0.00022773       0.02426094
N       15.76615085      13.33713406      13.65067259       0.00023150       0.00010221       0.00023210      -0.02863467
N       16.55971756      16.53569440      13.20826606      -0.00006120      -0.00000092       0.00007816      -0.13228486
