10
Properties=species:S:1:pos:R:3:forces:R:3:charge:R:1 formula=N10 topology=ring-4-substituted n_edges=10 n_rings=1 ff_energy=94.3891 mace_energy_eV=-14900.429938 delta_E_eV_atom=0.3196839435297534 sg=P1 energy=-788.6863482239526 free_energy=-788.6863482239526 dipole="0.07723575360022507 -0.09182497800882564 -0.1187555497515045" pbc="F F F"
N       16.75864432      15.47688354      16.55795915       0.00005958       0.00001667       0.00024389       0.30081116
N       13.62788375      14.02958070      15.64197725      -0.00006332      -0.00002367       0.00000055       0.30081578
N       16.40485397      15.43954698      15.41599336      -0.00008219       0.00009238      -0.00026800      -0.16645266
N       14.35954140      14.49418115      14.81767496       0.00000105      -0.00004673       0.00003679      -0.16643932
N       16.38465579      15.07001463      11.52834686       0.00003701       0.00008365      -0.00008751      -0.17622971
N       16.23636809      14.72299133      12.58295273      -0.00001833      -0.00000839      -0.00003064       0.30767317
N       15.75815035      14.34171137      14.81945142      -0.00003618      -0.00008780      -0.00002803       0.09679186
N       17.15612291      15.79084891      17.55958482       0.00004781      -0.00001735       0.00003315      -0.19029879
N       12.73902590      13.74879145      16.26720608       0.00004782       0.00005904      -0.00001120      -0.19032671
N       16.24324062      14.06913646      13.59186785       0.00000674      -0.00006781       0.00011100      -0.11634478
