10
Properties=species:S:1:pos:R:3:forces:R:3:charge:R:1 formula=N10 topology=bicyclic-6-6 n_edges=11 n_rings=2 ff_energy=38.6017 mace_energy_eV=-14899.053707 delta_E_eV_atom=0.4573069941338872 sg=P1 energy=-788.2657868676491 free_energy=-788.2657868676491 dipole="-0.10387947783854527 -0.06268670277393908 -0.04290945668422159" pbc="F F F"
N       13.91164135      16.34270206      14.34511023      -0.00006951      -0.00021999       0.00011388      -0.01620677
N       13.75301894      13.73734631      15.80970991      -0.00010957       0.00005846       0.00021761       0.30185718
N       13.41400729      14.11701012      16.81143169       0.00006780      -0.00000173      -0.00008938      -0.17766243
N       14.19686958      17.29317435      13.87490180       0.00007024       0.00022391      -0.00010231       0.01416079
N       14.79191583      13.17499705      13.83950347       0.00026423       0.00010828      -0.00003439      -0.01139855
N       13.83896717      13.18059899      14.74632167      -0.00006372      -0.00004810      -0.00003075      -0.06423861
N       17.88809907      15.85862836      15.65316846      -0.00015153      -0.00020180      -0.00008150      -0.18196681
N       15.84555583      13.78717960      13.93636101       0.00002812       0.00007685       0.00011216      -0.04404262
N       16.10615848      14.54093988      15.02925296      -0.00029990      -0.00028486      -0.00011818      -0.11896350
N       17.09080675      15.18685118      15.23369254       0.00026384       0.00028897       0.00001285       0.29846133
