4
Properties=species:S:1:pos:R:3:forces:R:3:charge:R:1 formula=N4 topology=polycyclic-3-3 integrity=OK energy_eV=-5952.866011 delta_E_eV_atom=2.2729 sg=P1 energy=-311.1597191899 free_energy=-311.1597191899 dipole="0.0017596558907927466 0.00606443181827069 -0.00977663376437455" pbc="F F F"
N        0.79392307       0.08950705       0.04234585       0.00007270      -0.00001865      -0.00006972       0.10404872
N        0.10714937      -0.94915949      -0.41631418      -0.00003811       0.00004356       0.00006239      -0.10403830
N       -0.14746738       0.81041605       0.63810963      -0.00003786       0.00001079       0.00006533      -0.10408101
N       -0.75360506       0.04923639      -0.26414129       0.00000327      -0.00003570      -0.00005800       0.10407059
