12
depart gfn2b
N        0.008287      -0.035575       0.128428
N       -0.782418       0.944070       0.484477
N       -2.014159       0.532625       0.325743
N       -1.980378      -0.694887      -0.126069
N       -0.727153      -1.049586      -0.249364
N        8.367219      -0.114814       0.496450
N        7.808057       0.897117      -0.078552
N        6.701470       0.662342      -1.019003
N        6.311201      -0.620599      -0.594195
N        7.283929      -0.817693       0.493318
N        3.204132      -0.162716       0.660338
N        6.349288       0.503835       0.506391
