12
 energy: -34.557348338483 gnorm: 0.000621400201 xtb: 6.6.1 (8d0f1dd)
N            1.34510987545239        0.06707017644463       -0.08265873194381
N            0.41504662714359        1.08764175295502        0.16901493720722
N           -0.66216764636457        0.50306799822988        0.41052387046093
N           -0.53783469433971       -0.78984261363726        0.34541132650763
N            0.62800577351478       -1.13201105532395        0.05562023510937
N            7.42102887081627        0.00328803407095        0.33231293149624
N            6.92238626301026        1.06337149217068        0.06687657536596
N            5.52755601485158        0.84681911095859       -0.16909036583975
N            5.41818619968335       -0.51131436217126       -0.67661911283264
N            6.39629309836796       -0.98984400168362        0.29244470248529
N            2.50649617879095        0.19122917933969       -0.36041616314502
N            5.16120267696614       -0.29779337349728        0.64764890010061
