12
depart gfn2
N        1.207924       0.000000       0.000000
N        0.373269       1.148804       0.000000
N       -0.977231       0.710000       0.000000
N       -0.977231      -0.710000       0.000000
N        0.373269      -1.148804       0.000000
N        7.523772       0.000000       0.000000
N        6.689117       1.148804       0.000000
N        5.338617       0.710000       0.000000
N        5.338617      -0.710000       0.000000
N        6.689117      -1.148804       0.000000
N        3.313207       0.000000       0.000000
N        5.418490       0.000000       0.000000
