12
 energy: -2.789013203780 gnorm: 0.000829889792 xtb: 6.6.1 (8d0f1dd)
N            0.00828659484919       -0.03557499102081        0.12842826878553
N           -0.78241839605192        0.94406999381785        0.48447668138821
N           -2.01415859469831        0.53262524824261        0.32574341999615
N           -1.98037785192779       -0.69488660148751       -0.12606932684591
N           -0.72715295886706       -1.04958644488668       -0.24936420873081
N            8.36721892117324       -0.11481387935341        0.49645029491137
N            7.80805722907917        0.89711697128955       -0.07855206949542
N            6.70146966931933        0.66234248301872       -1.01900316692190
N            6.31120091901047       -0.62059883381481       -0.59419458789417
N            7.28392900335780       -0.81769347413093        0.49331795445701
N            3.20413240640170       -0.16271630477349        0.66033770073432
N            6.34928791310648        0.50383467588442        0.50639064499868
