12
 energy: -34.523796298852 gnorm: 0.204587575796 xtb: 6.6.1 (8d0f1dd)
N            1.59224934622668       -0.00000232506614        0.00002474554696
N            0.82372405633761        1.09716110821932       -0.00000071467914
N           -0.36276662383342        0.64236914929257       -0.00003861947993
N           -0.36275567773406       -0.64237141890265       -0.00001824588768
N            0.82374265215676       -1.09714826213797        0.00001832857700
N            7.05233795273266       -0.00000685049882        0.00000356590226
N            6.51032304905057        1.13980110144500       -0.00000762939579
N            4.94090470226667        1.14876521810709       -0.00000813188173
N            4.94090090107800       -1.14876700071342        0.00000422975491
N            6.51031666773561       -1.13981212302358        0.00000999483358
N            2.78567613973513       -0.00000059672590       -0.00000448324383
N            5.05620269041708       -0.00000141848767       -0.00000115723714
