8
Properties=species:S:1:pos:R:3:forces:R:3:charge:R:1 formula=N8 topology=bicyclic-3-6 n_edges=9 n_rings=2 ff_energy=265.2253 mace_energy_eV=-11919.017948 delta_E_eV_atom=0.48543416139818873 sg=P1 energy=-628.4592810248532 free_energy=-628.4592810248532 dipole="-0.012674835403703852 0.05135027006652985 -0.05780352390469104" pbc="F F F"
N       16.59421306      15.65647213      14.70156491       0.00005856      -0.00005495      -0.00016219      -0.04043139
N       12.54278428      14.62129910      15.63137481       0.00007111       0.00004697      -0.00008251       0.04508063
N       13.82908645      14.18615342      15.99383349       0.00006048      -0.00005205      -0.00010594       0.01074984
N       14.89629463      14.36364087      15.26464701      -0.00002954       0.00020228       0.00007447      -0.08571845
N       17.33397222      14.93628560      14.08033155      -0.00025111       0.00018546       0.00019624       0.29730940
N       15.44860100      15.50801567      15.27702138       0.00002378       0.00013406      -0.00008422      -0.03998028
N       12.96801394      15.37793612      16.46956816      -0.00006615      -0.00020556       0.00018622      -0.02703637
N       18.20793534      14.55097053      13.48981582       0.00013288      -0.00025621      -0.00002208      -0.15997338
