8
Properties=species:S:1:pos:R:3:forces:R:3:charge:R:1 N8=T charge=0 mult=1 PG=Oh |=T Becke3LYP/6-31G*=T src:=T GS=T Fig.3=T (11,=T Oh)=T -=T octaazacubane=T energy=-623.3753760927083 free_energy=-623.3753760927083 dipole="2.9375236163744554e-16 1.2631351550410158e-15 -2.9081483802107107e-15" pbc="F F F"
N       -0.71116602      -0.71116602      -0.71116602       0.00014596       0.00014596       0.00014596      -0.00000000
N       -0.71116602      -0.71116602       0.71116602       0.00014596       0.00014596      -0.00014596       0.00000000
N       -0.71116602       0.71116602      -0.71116602       0.00014596      -0.00014596       0.00014596       0.00000000
N       -0.71116602       0.71116602       0.71116602       0.00014596      -0.00014596      -0.00014596       0.00000000
N        0.71116602      -0.71116602      -0.71116602      -0.00014596       0.00014596       0.00014596       0.00000000
N        0.71116602      -0.71116602       0.71116602      -0.00014596       0.00014596      -0.00014596       0.00000000
N        0.71116602       0.71116602      -0.71116602      -0.00014596      -0.00014596       0.00014596       0.00000000
N        0.71116602       0.71116602       0.71116602      -0.00014596      -0.00014596      -0.00014596      -0.00000000
