8
Properties=species:S:1:pos:R:3:forces:R:3:charge:R:1 formula=N8 topology=ring-3-substituted n_edges=8 n_rings=1 ff_energy=253.1272 mace_energy_eV=-11919.835925 delta_E_eV_atom=0.38318712218074324 sg=P1 energy=-631.4166302121414 free_energy=-631.4166302121414 dipole="0.0064570523877416405 0.019045616653635078 0.038870835409313756" pbc="F F F"
N       18.68588654      14.51776328      13.92267645       0.00001983      -0.00011756      -0.00001936      -0.18717095
N       11.57881820      14.86131955      14.93724928      -0.00014304       0.00000357       0.00005408      -0.18717307
N       16.51663472      14.81595787      14.62964264       0.00016000       0.00005447       0.00020411      -0.08823228
N       14.76371611      15.39865116      15.90316437       0.00018851      -0.00003673      -0.00000948      -0.02195727
N       12.68638971      14.96636691      15.10505509       0.00027845      -0.00001537      -0.00006816       0.29736055
N       17.68427974      14.72475860      14.39155291      -0.00022191       0.00013004       0.00002487       0.29736257
N       13.87725383      14.94353480      15.00646847      -0.00017981       0.00003039      -0.00001016      -0.08822099
N       15.96292199      15.34068033      15.73196471      -0.00010202      -0.00004880      -0.00017590      -0.02196856
