4
Properties=species:S:1:pos:R:3:forces:R:3:charge:R:1 formula=N4 topology=ring-3-subst integrity=OK energy_eV=-5958.095876 delta_E_eV_atom=0.9655 sg=P1 energy=-311.35668221423026 free_energy=-311.35668221423026 dipole="0.17679719596985197 -0.08696282033054903 0.09330236965737565" pbc="F F F"
N       -0.26666636       0.13122997      -0.14080643      -0.00028617      -0.00027020       0.00022015       0.37767239
N       -1.19646424       0.58862859      -0.63158875       0.00010394       0.00013593      -0.00018647      -0.26224291
N        0.83380771      -0.71596970      -0.13929076      -0.00001136       0.00018399       0.00005498      -0.05771155
N        0.62932290      -0.00388884       0.91168595       0.00019358      -0.00004972      -0.00008866      -0.05771793
