4
Properties=species:S:1:pos:R:3:forces:R:3:charge:R:1 formula=N4 topology=ring-4 n_edges=4 n_rings=1 ff_energy=118.1785 mace_energy_eV=-5961.451688 delta_E_eV_atom=-0.00024439671119580453 sg=P-1 energy=-313.70645351812294 free_energy=-313.70645351812294 dipole="-4.52841086662594e-06 -5.360597867243569e-06 -5.814716565556894e-06" pbc="F F F"
N       15.29455737      16.56640507      14.15901499       0.00000239       0.00000898      -0.00000309       0.00000334
N       15.25133173      14.08803965      16.53368761      -0.00002243      -0.00002941      -0.00002594      -0.00001206
N       14.74866773      15.91192479      13.46634666      -0.00000144       0.00000016      -0.00000372      -0.00000334
N       14.70544317      13.43363049      15.84095074       0.00002148       0.00002027       0.00003274       0.00001206
