9
Properties=species:S:1:pos:R:3:forces:R:3:charge:R:1 formula=N9 topology=ring-4-substituted n_edges=9 n_rings=1 ff_energy=93.6503 mace_energy_eV=-13409.654189 delta_E_eV_atom=0.4011011319632871 sg=P1 energy=-708.5621998154295 free_energy=-708.5621998154295 dipole="-0.051894653562183944 -0.18913617458094867 0.01061187656712906" pbc="F F F"
N       15.61036710      16.70123743      14.44922365      -0.00007229      -0.00003232      -0.00002226      -0.02439229
N       15.61654884      13.52344583      13.43842170      -0.00004260       0.00004001       0.00008822       0.28806824
N       15.98737654      13.08376168      12.46544190       0.00001649      -0.00002239      -0.00005352      -0.18107621
N       15.41941542      17.51374385      15.17267091       0.00007550       0.00007217       0.00000628      -0.03669377
N       14.04622519      15.97682864      18.21312308      -0.00003042       0.00001384       0.00005025      -0.17951680
N       14.35197135      14.73369122      16.29467360       0.00009363       0.00014443       0.00011254      -0.03940754
N       14.32785162      15.44640458      17.25497918       0.00002371      -0.00016236      -0.00022925       0.28003953
N       14.98437199      13.79235774      14.41622656       0.00004781       0.00000073      -0.00003113      -0.03168301
N       15.26908921      14.64916943      15.36352912      -0.00011183      -0.00005411       0.00007886      -0.07533815
