10
Properties=species:S:1:pos:R:3:forces:R:3:charge:R:1 formula=N10 topology=ring-4-substituted n_edges=10 n_rings=1 ff_energy=109.4011 mace_energy_eV=-14900.787514 delta_E_eV_atom=0.283926272738654 sg=P1 energy=-789.0338973096685 free_energy=-789.0338973096685 dipole="-0.2465220054789704 -0.13390793092919495 -0.03441240549120186" pbc="F F F"
N       14.56647223      15.04441032      15.98253287       0.00030398       0.00014789       0.00004220       0.06885351
N       12.75845465      13.61199250      12.76025565       0.00008775      -0.00032179      -0.00024064       0.29057930
N       15.60516773      15.49436197      16.43400797      -0.00029442      -0.00007183      -0.00019652      -0.06804748
N       17.32983102      16.92665823      16.06979364       0.00020088       0.00014171       0.00005704       0.29792867
N       12.39008324      14.53670956      13.43004181      -0.00027747       0.00014260      -0.00005637      -0.05658935
N       18.26051167      17.55442613      16.15645306       0.00010329       0.00004082      -0.00000208      -0.20136660
N       12.89149119      15.18859106      14.45147802      -0.00002772       0.00011485       0.00014250      -0.05074806
N       16.33087257      16.38554551      15.70399808      -0.00031682      -0.00023991       0.00003531      -0.11277577
N       14.02017194      14.86089084      14.88935767       0.00019328      -0.00005383       0.00013325       0.00999489
N       12.85398429      12.79251570      11.99664730       0.00002724       0.00009950       0.00008531      -0.17782912
