10
Properties=species:S:1:pos:R:3:forces:R:3:charge:R:1 N10=T charge=0 mult=1 PG=D5h |=T B3LYP/aug-cc-pVDZ=T src:=T B=T p.66=T (B3LYP/aug-cc-pVDZ)=T -=T prisme=T pentagonal=T energy=-782.0662969690559 free_energy=-782.0662969690559 dipole="-8.324380861794479e-11 1.6156379890059504e-15 -1.9975160591346295e-15" pbc="F F F"
N        1.19474282       0.00000000       0.71185215      -0.00000615      -0.00000000      -0.00004054      -0.00000000
N        0.36919597       1.13626775       0.71185215      -0.00000188      -0.00000576      -0.00004051       0.00000000
N       -0.96656688       0.70225209       0.71185215       0.00000495      -0.00000358      -0.00004053      -0.00000000
N       -0.96656688      -0.70225209       0.71185215       0.00000495       0.00000358      -0.00004053      -0.00000000
N        0.36919597      -1.13626775       0.71185215      -0.00000188       0.00000576      -0.00004051       0.00000000
N        1.19474282      -0.00000000      -0.71185215      -0.00000615       0.00000000       0.00004054      -0.00000000
N        0.36919597       1.13626775      -0.71185215      -0.00000188      -0.00000576       0.00004051       0.00000000
N       -0.96656688       0.70225209      -0.71185215       0.00000495      -0.00000358       0.00004053      -0.00000000
N       -0.96656688      -0.70225209      -0.71185215       0.00000495       0.00000358       0.00004053      -0.00000000
N        0.36919597      -1.13626775      -0.71185215      -0.00000188       0.00000576       0.00004051       0.00000000
