10
Properties=species:S:1:pos:R:3:forces:R:3:charge:R:1 formula=N10 topology=ring-3-substituted n_edges=10 n_rings=1 ff_energy=264.5121 mace_energy_eV=-14900.827308 delta_E_eV_atom=0.2799469341234726 sg=P1 energy=-787.2787619244366 free_energy=-787.2787619244366 dipole="-0.07659961084248537 -0.2652277583364415 -0.17761246803340613" pbc="F F F"
N       12.32045559      14.55430827      13.76244612       0.00035489      -0.00003648      -0.00003042       0.28829855
N       18.43167589      17.18474988      16.24880165       0.00003138       0.00009469       0.00010426      -0.18800793
N       15.91730056      16.47704260      14.11366014      -0.00007962      -0.00008798       0.00003973      -0.01000260
N       17.53566096      16.80163198      15.69521079       0.00034699       0.00014084       0.00000113       0.31349535
N       14.84449617      15.62931807      13.91017470       0.00002839      -0.00002171       0.00003216       0.32195661
N       14.61971668      14.44111978      13.62637754      -0.00004787      -0.00013315       0.00000803      -0.12320483
N       16.55245987      16.23468993      15.32978546      -0.00034550      -0.00026098      -0.00015964      -0.15144942
N       11.23085180      14.80423945      13.87115474      -0.00033445       0.00006973       0.00005319      -0.16227448
N       14.48257050      16.79963391      14.24605224      -0.00009145       0.00013460      -0.00000082      -0.23271296
N       13.37509479      14.00850401      13.58195385       0.00013725       0.00010044      -0.00004763      -0.05609829
