9
Properties=species:S:1:pos:R:3:forces:R:3:charge:R:1 formula=N9 topology=ring-5-substituted n_edges=9 n_rings=1 ff_energy=38.7092 mace_energy_eV=-13410.681016 delta_E_eV_atom=0.2870093094238655 sg=P1 energy=-708.5270427916754 free_energy=-708.5270427916754 dipole="0.06577603440708861 -0.12304453813030838 -0.019802663560189716" pbc="F F F"
N       16.15534077      13.62823324      14.77616973       0.00004975      -0.00012877      -0.00001710      -0.01119381
N       15.90913982      14.42653385      15.74015407       0.00003251       0.00005615       0.00016701      -0.08832695
N       15.99712146      13.62541712      13.58305985      -0.00004734       0.00000291      -0.00014856       0.27684131
N       13.41078191      15.01517289      13.72811499      -0.00002035      -0.00001775      -0.00006530      -0.01816166
N       12.55757537      15.70708236      13.69930867       0.00003311       0.00001514       0.00007022       0.00787373
N       14.62457990      17.40887553      16.67539163       0.00003066      -0.00017343      -0.00010133      -0.19147879
N       15.01740117      16.45599511      16.21063492      -0.00007671       0.00029114       0.00027168       0.27944024
N       15.33003233      15.58602941      15.45085561      -0.00000188      -0.00006486      -0.00024194      -0.07495135
N       15.98914899      13.35067134      12.48591975       0.00000026       0.00001947       0.00006532      -0.18004272
