3
Properties=species:S:1:pos:R:3:initial_charges:R:1:initial_magmoms:R:1:forces:R:3:charge:R:1 N3=T charge=-1 mult=3 PG=D3h |=T B3LYP/aug-cc-pVDZ=T src:=T B=T p.14=T (B3LYP/aug-cc-pVDZ,=T triplet=T 3A1)=T energy=-238.16745964025085 free_energy=-238.16745964025085 dipole="-7.714222367643414e-09 -1.9975160591346295e-15 -5.299736018926611e-17" pbc="F F F"
N        0.80053611      -0.00000000      -0.00000000      -1.00000000       2.00000000      -0.00008725       0.00000000       0.00000000      -0.33333334
N       -0.40026806       0.69328461       0.00000000       0.00000000       0.00000000       0.00004362      -0.00007554      -0.00000000      -0.33333333
N       -0.40026806      -0.69328461      -0.00000000       0.00000000       0.00000000       0.00004362       0.00007554      -0.00000000      -0.33333333
