8
Properties=species:S:1:pos:R:3:forces:R:3:charge:R:1 formula=N8 topology=bicyclic-4-4-4 n_edges=10 n_rings=3 ff_energy=247.4744 mace_energy_eV=-11917.889582 delta_E_eV_atom=0.6264799302505253 sg=P-1 energy=-627.1042565490222 free_energy=-627.1042565490222 dipole="-3.035106816256841e-05 7.701415214159729e-05 -0.00011973213728672378" pbc="F F F"
N       15.00916793      15.89377632      13.40783401      -0.00016045      -0.00000383       0.00018340      -0.00501274
N       15.64138471      14.81464714      13.92959712      -0.00001749       0.00002466      -0.00010334       0.00505231
N       14.99083233      14.10621952      16.59216477      -0.00014262      -0.00001106       0.00012102      -0.00505604
N       16.24717555      14.81014338      15.00500214       0.00001942       0.00003812       0.00001156       0.00502934
N       13.93413413      16.10736746      14.01428940       0.00019783      -0.00003080      -0.00008399      -0.00502592
N       14.35861931      15.18535686      16.07040288       0.00001553       0.00007764      -0.00010729       0.00503083
N       13.75282228      15.18985856      14.99500010      -0.00013465       0.00000753      -0.00000200       0.00504030
N       16.06586345      13.89263045      15.98570949       0.00022244      -0.00010226      -0.00001936      -0.00505808
