8
Properties=species:S:1:pos:R:3:forces:R:3:charge:R:1 formula=N8 topology=polycyclic-3-3 integrity=REARRANGED energy_eV=-11912.079161 delta_E_eV_atom=1.4795 sg=P1 energy=-628.7200372885096 free_energy=-628.7200372885096 dipole="0.07176833281948462 0.6932134020712597 0.05390095986674706" pbc="F F F"
N        1.04279027       0.66670936      -0.45326203       0.00004045       0.00006125      -0.00001451      -0.05701863
N       -0.50779595      -1.03274153       0.12767311      -0.00008630      -0.00014183       0.00010823      -0.27810954
N       -1.71782251       1.81746546       1.12990169       0.00009350       0.00004799      -0.00001468      -0.09785539
N       -0.77170014       1.53410443       0.60193235      -0.00021283      -0.00002776       0.00010323       0.31231048
N        0.60478132      -0.50736021      -0.38039280       0.00005234      -0.00004027      -0.00004930       0.28407371
N       -0.02100576      -2.25538929      -0.28554799      -0.00006381       0.00025690      -0.00005936      -0.00222582
N        0.31018167       1.59330584       0.04855996       0.00009388      -0.00022167      -0.00012581      -0.01139977
N        1.06057110      -1.81609406      -0.78886429       0.00008276       0.00006540       0.00005219      -0.14977504
