8
Properties=species:S:1:pos:R:3:forces:R:3:charge:R:1 formula=N8 topology=bicyclic-3-3 n_edges=9 n_rings=2 ff_energy=523.2242 mace_energy_eV=-11918.211549 delta_E_eV_atom=0.5862340665669308 sg=P1 energy=-625.6743244307532 free_energy=-625.6743244307532 dipole="0.09475772365292906 -0.11934903563999785 -0.1240095891161126" pbc="F F F"
N       15.60750626      15.48387346      16.41706640       0.00001873       0.00014630       0.00000773      -0.06293543
N       14.37082258      13.96639610      13.63029520       0.00009538      -0.00011531       0.00029973       0.19075117
N       16.49509739      16.61616955      16.65631198       0.00005465      -0.00009425      -0.00010366       0.00528586
N       14.84578870      15.72125916      15.21971250      -0.00009381      -0.00027818      -0.00008283      -0.03593514
N       14.66897204      13.01557672      13.08468033      -0.00010069       0.00022954       0.00004520      -0.09628326
N       13.46527462      15.43335546      15.29798022      -0.00000942       0.00000212       0.00002615      -0.21242270
N       14.22605560      14.49225915      14.80626062       0.00016629       0.00015934      -0.00022777       0.16409555
N       15.51070785      16.52591829      17.35583110      -0.00013113      -0.00004956       0.00003545       0.04744395
