10
N10_neutral neutral rank 8 E_react=-74.91 kcal/mol
N     -2.07053076     1.72564124    -0.51085703
N     -1.12915006     1.53302990     0.09183314
N      0.06119594     1.91474730     0.29100801
N      0.84939551     1.40145182     1.11253637
N      1.89655072     1.38513232     1.60474424
N      1.72662992    -0.18547676     2.94122043
N      2.66800418    -0.37809697     3.54391421
N      0.53628450    -0.56716034     2.74201722
N     -0.25188951    -0.05384059     1.92047807
N     -1.29905045    -0.03752691     1.42827235
