10
N10_neutral neutral rank 3 E_react=-110.70 kcal/mol
N     -2.66725654     3.13850269    -0.26064201
N     -1.83850565     2.66375928     0.33578111
N     -1.17312468     2.16067630     1.19037223
N      0.09935677     1.76365854     1.08531932
N      0.57085817     1.17463735     2.07093639
N      1.71553752     0.98841330     2.49429981
N      2.41837376     0.02989242     2.82058558
N      2.14351841    -1.21109057     2.41248963
N      1.22899762    -1.66182477     1.78410719
N      0.48964415    -2.30875699     1.23183076
