10
N10_neutral neutral rank 15 E_react=-22.96 kcal/mol
N      1.00104518    -0.71726747     0.42506770
N      0.00133924    -0.12697579     0.76543184
N     -0.81887559     0.17706364    -0.27634468
N     -0.60036963     1.39945000    -0.95019628
N      0.80286260     1.58252487    -1.21534790
N      1.55963378     0.62996660    -1.22712161
N      1.05561500    -0.70759947    -1.05460862
N     -0.32240509    -0.75811763    -1.36211288
N     -0.74133579    -0.13414296    -2.49596903
N     -1.02179670     1.02961521    -2.32065154
