10
N10_neutral neutral rank 7 E_react=-80.55 kcal/mol
N     -1.92120468    -0.85696669    -0.70943302
N     -1.64193091     0.36983535    -0.86821988
N     -0.41109050     0.75426769    -0.81985807
N     -0.03182189     1.97443689    -0.99999519
N      1.20387619     2.25741808    -0.96523990
N      2.00476099     1.28649470    -1.33556045
N      1.80649987     0.08944636    -1.26526106
N      0.67504792    -0.31113354    -0.52207317
N      0.21489939    -1.49670772    -1.13497315
N     -0.98389623    -1.69194742    -1.09090161
