10
N10_neutral neutral rank 16 E_react=-20.37 kcal/mol
N      0.57276076    -0.91730043     1.30862586
N     -0.48203466    -0.72215635     1.81915908
N     -1.04237064     0.65297698     1.68723640
N     -0.03389823     1.47582342     2.13449504
N      0.62525706     1.68028278     3.30635914
N      1.76992162     1.46851190     2.75232834
N      1.19611630     1.24826238     1.53915365
N      1.19633609     0.23880085     0.60367498
N      0.12631563     0.70762281    -0.25122156
N     -0.94096391     0.90507566     0.26535407
