10
N10_neutral neutral rank 22 E_react=49.74 kcal/mol
N     -0.67954159    -0.14590672     0.12086209
N     -0.69811369    -0.90377170    -1.06147955
N     -1.02016901     0.26605989    -1.80626693
N     -1.00159691     1.02392487    -0.62392529
N      0.30516175     1.50324441    -0.43612059
N      0.62721707     0.33341280     0.30866678
N      1.41626623    -0.12821641    -0.75760519
N      0.59716677    -0.89283847    -1.60440220
N      0.27511146     0.27699313    -2.34918957
N      1.09421092     1.04161520    -1.50239255
