10
N10_neutral neutral rank 17 E_react=-3.74 kcal/mol
N     -1.12242845    -0.91158877    -0.75835345
N     -0.88178702    -0.74621785    -1.93262074
N     -0.44335875     0.56658140    -2.19097414
N      0.96861722     0.78965401    -1.87020243
N      1.62094574    -0.35082624    -1.36405095
N      1.38029151    -0.51620080    -0.18978532
N      0.52220389     0.48287367     0.30814170
N     -0.88976983     0.25980783    -0.01262872
N     -0.80031767     1.29265833    -1.00535743
N      0.56131638     1.50777442    -0.69602252
