10
N10_neutral neutral rank 21 E_react=40.40 kcal/mol
N     -1.76800038    -0.70645524     1.27476153
N     -1.93130844     0.26852504     0.46884993
N     -0.57845614     0.54674068     0.40897986
N     -0.39535544    -0.54640710     1.31254318
N      0.16692968     0.35104725     2.27790587
N     -0.01507954     1.43794358     1.37945142
N      1.39872260     1.49190750     1.15187671
N      2.18252327     2.23529901     2.01457003
N      2.34571121     1.26042673     2.82063286
N      1.58175319     0.39887155     2.05559561
