10
N10_neutral neutral rank 19 E_react=13.77 kcal/mol
N      1.20324429     0.55559634     0.96133463
N      0.58102689    -0.71566626     0.78918710
N     -0.42932704    -0.09258221     0.02376344
N     -1.61895713    -0.23184900     0.68194674
N     -1.29571712    -0.57278495     2.03133287
N     -1.63826408     0.77350230     1.69706271
N     -0.45905722     1.45552690     1.58690883
N      0.09753250     1.18457610     0.31737516
N      0.55377574     0.70335565     2.22199147
N      0.06842018    -0.61757885     2.10164106
