10
N10_neutral neutral rank 2 E_react=-123.70 kcal/mol
N     -2.55153670     1.20144411     1.21749058
N     -1.78876664     0.57766652     1.75026857
N     -1.30389216    -0.24710977     2.49073793
N     -0.17025837    -0.72359691     2.85981308
N      0.96813982    -0.43250404     2.50841479
N      1.26222251     0.51701012     1.59734821
N      2.51336911     0.78795880     1.25714209
N      2.44520950     1.71133877     0.39548564
N      1.17993030     2.03270161     0.18093699
N      0.43302463     1.31298979     0.90752912
