10
N10_neutral neutral rank 12 E_react=-35.42 kcal/mol
N     -2.13233820     2.58036621    -0.26465712
N     -1.10362208     2.05481527    -0.20552487
N     -0.51286898     1.22895249     0.65910795
N      0.71199254     0.75006868     0.27743851
N      1.38271405     0.06439892     1.02876931
N      0.90616555    -0.13245015     2.34301331
N      1.72866965    -0.67335028     3.24268545
N      2.44829920    -1.57885496     3.25522316
N      0.13773876     0.90761629     2.79373375
N     -0.57931050     1.53633753     2.03537654
