10
N10_neutral neutral rank 11 E_react=-41.25 kcal/mol
N     -0.76880731     0.97479414     0.49515191
N     -1.77325724     0.50199969     1.22221803
N     -1.93718259    -0.93301172     1.40306630
N     -1.45548118    -0.37529736     2.36080314
N      0.39802180     0.87387061     0.94447992
N      0.73705406     0.12613543     2.04593421
N      1.64372826     0.61725133     2.77140672
N      2.30119134     1.66856982     2.42514005
N      2.35994752     1.85473741     1.14325576
N      1.48256586     1.42860754     0.35346685
