10
N10_neutral neutral rank 1 E_react=-134.20 kcal/mol
N     -0.96628107     2.75700363     0.35919075
N     -0.42499216     2.31741840     1.40791144
N     -0.01657102     1.08832675     1.09977240
N      0.61405328     0.25924641     1.93325905
N      1.93477191     0.18506276     2.08366790
N      2.11747514    -0.70846961     2.95215126
N      0.95290653    -1.19504951     3.34927259
N      0.01599408    -0.61664009     2.73797745
N     -0.33080153     0.80931398    -0.16349110
N     -0.90911316     1.84168627    -0.59454474
