10
N10_neutral neutral rank 9 E_react=-70.73 kcal/mol
N     -1.47537880     1.86054545    -0.59902094
N     -0.82922683     1.37232646     0.18260313
N     -0.12855944     0.91821668     1.01463027
N     -0.15729801    -0.80667665     1.34060811
N     -0.85554127    -1.48543792     0.74559855
N      0.72616605    -1.01300035     2.31325408
N      1.45297095    -0.23187037     2.91826273
N      1.67229654     1.00642539     2.89507989
N      1.28518465     2.00490023     2.28221068
N      1.29535929     3.10764346     2.06651060
