10
N10_neutral neutral rank 4 E_react=-100.84 kcal/mol
N     -3.11312383     2.02309809    -0.17201546
N     -2.22395479     1.63080870     0.39202637
N     -1.21279537     1.07908621     0.71484829
N     -0.64805389     1.08569102     1.91342032
N      0.43886927     0.45871086     1.99945372
N      1.08227086     0.32216332     3.18861544
N      2.33576246     0.31066443     3.12030100
N      2.97472647     0.30627058     1.99074160
N      2.30396954    -0.22611392     1.02224284
N      1.04958482    -0.25326810     0.99518613
