10
N10_neutral neutral rank 13 E_react=-34.65 kcal/mol
N     -0.59104048     0.75395866     0.33468685
N     -0.83838729     0.14287610     1.44911248
N     -1.71990709    -0.57652544     2.10006163
N     -0.90414768    -0.64980151     3.18382958
N      0.01193324     0.06650004     2.57878487
N      1.18827140     0.59413861     2.69856870
N      1.43601442     1.20442126     1.58380521
N      2.31738708     1.92412128     0.93297516
N      1.50162276     1.99740083    -0.15078579
N      0.58569466     1.28081018     0.45412630
