10
N10_neutral neutral rank 10 E_react=-45.58 kcal/mol
N     -0.68446702    -1.13065572    -0.21209260
N     -1.44009369    -0.14827483    -0.22593025
N     -1.01606903     0.97474117    -0.77014292
N     -1.01826034     2.29963459    -0.44035488
N      0.15293687     2.48265191    -0.92804086
N      0.23168027     1.19380042    -1.38696917
N      1.08790758     0.14486133    -1.29636360
N      1.76767669    -0.68733296    -2.14682969
N      1.31275056    -1.74017614    -1.57445082
N      0.52167295    -1.01471794    -0.73065147
