10
N10_neutral neutral rank 20 E_react=34.26 kcal/mol
N     -0.11275137    -1.28196673     0.05479233
N      0.05849232    -0.29536643     0.79460648
N      0.22309362     0.89281296     0.16799760
N      1.18212808     0.88366814    -0.91482710
N      0.99077772    -0.21876332    -1.74149947
N     -0.11096870    -1.03182980    -1.27521927
N     -0.94278373     0.07707125    -1.68845320
N     -0.75143329     1.17950334    -0.86178171
N      0.28834990     1.65373603    -1.69703203
N      0.09081046     0.51565155    -2.55043864
