10
N10_neutral neutral rank 14 E_react=-33.70 kcal/mol
N      0.94577530     3.12526146     0.85193088
N     -0.10539370     2.93041504     1.53145334
N     -0.64462734     1.82785939     1.77324998
N      0.21219853     0.77854539     1.47056363
N      0.24502265    -0.30219842     2.15225863
N     -0.83606047    -1.20884958     2.56099751
N      0.02337778    -2.13593449     2.44841323
N      1.05953258    -1.39050671     2.04842575
N      0.87871435     0.97931435     0.31746079
N      1.20859929     2.13375380     0.01020218
