10
N10_neutral neutral rank 18 E_react=8.82 kcal/mol
N     -1.55446979    -0.15089912    -0.86179415
N     -0.90358241     0.47223057     0.23772108
N     -1.08101841     1.15690654    -0.99150204
N      0.01173538     1.12277739    -1.80711105
N      1.29435308     1.24276160    -1.19384087
N      1.62126746    -0.06908662    -1.63322675
N      1.40672634     0.16948851    -0.27367169
N      0.21317884    -0.39838804     0.06315809
N     -0.37621574    -0.91730302    -1.13929770
N      0.28373925    -0.25397183    -2.11228992
