10
N10_neutral neutral rank 6 E_react=-95.64 kcal/mol
N      0.02172628     0.99352913     0.22953541
N     -0.37091863    -0.33242022     0.11705549
N     -0.80116620    -0.77014038     1.16344181
N     -0.77784541     0.18005835     2.17414842
N      0.11704633    -0.04644990     3.20991502
N      1.01988720     0.76378047     3.21687973
N      0.90000040     1.68579576     2.18707840
N      1.85578123     1.61422140     1.18392023
N      1.38318455     1.24170801     0.13057606
N     -0.36025375     1.40781539     1.55261343
