10
N10_neutral neutral rank 5 E_react=-97.64 kcal/mol
N     -1.25815032     0.96699717    -0.16845850
N     -1.82130701     0.59589213     0.92683577
N     -1.14736030     0.35775786     1.98231451
N     -0.27470179     0.97130673     2.57369820
N      0.66255308     0.83352539     3.35936153
N      1.85712062     0.39484562     3.20271679
N      2.36648160     0.13595883     2.05032669
N      1.67829459     0.20705346     0.97962097
N      0.93038796     1.05433478     0.52085625
N     -0.00452161     1.21897911    -0.26238977
