11
N11_cation cation rank 10 E_react=39.21 kcal/mol
N     -1.07382744     1.30589413    -0.03947500
N     -0.63713836     0.15424557     0.33811807
N     -0.72626580    -0.21912549     1.78056209
N      0.45152425    -0.84847100     2.08653476
N      1.30051331    -0.89384077     0.96629676
N      1.86255496     0.32862806     1.34273833
N      1.01356590     0.37399782     2.46297634
N     -0.15973682     1.01310364     2.16000921
N     -0.04960913     1.43215151     0.73163084
N      1.27796513     0.93627329     0.26296687
N      0.71143601    -0.29595576    -0.11648028
