11
N11_anion anion rank 2 E_react=-86.75 kcal/mol
N     -1.20094109     1.29445503    -1.23279205
N     -0.71220105     1.54021339    -0.05992198
N     -0.15272977     0.40420184     0.31311638
N      0.29915506     0.16663791     1.53722960
N      0.85549138     1.32768424     2.21014847
N      1.38377034     1.06540688     3.29560865
N      1.66570181    -0.14808584     3.72903252
N      1.79600907    -1.01148664     2.74036580
N      1.29522380    -0.88773338     1.61786877
N     -0.30220110    -0.52543391    -0.61215317
N     -0.95614684     0.06114186    -1.56250661
