11
N11_anion anion rank 9 E_react=-46.89 kcal/mol
N     -3.14191905     0.36603543     1.29467796
N     -2.51055902     0.75583328     0.39036100
N     -1.50764218     0.59594110    -0.33819067
N     -1.21797227     1.57775153    -1.24636605
N     -0.02376117     1.59974031    -1.72967906
N      0.78665724     0.62892437    -1.42911881
N      2.11665877     0.53577151    -1.55144769
N      2.47464719    -0.50161365    -0.87236202
N      1.49762785    -1.10367898    -0.28162227
N      0.38508085    -0.47317619    -0.63600025
N     -0.86481755    -0.73539859    -0.50594452
