11
N11_anion anion rank 13 E_react=-10.28 kcal/mol
N     -1.85789352     1.46310065     1.65079814
N     -1.30528765     1.77284738     0.52714450
N     -0.19013806     1.37485383     0.10813987
N      0.64121789     0.83888896     1.16868024
N     -0.25133253    -0.05230138     1.91860558
N     -1.40936165     0.39893975     2.28640662
N      0.16459792    -1.27609509     1.86726440
N      1.28283054    -1.35822834     1.23657360
N      1.60261082    -0.09594972     0.76828980
N      2.35085323    -0.00970085    -0.36019888
N      2.94286848     0.23060660     0.80416531
