11
N11_anion anion rank 12 E_react=-17.47 kcal/mol
N     -0.99689072     0.85600333    -1.03675663
N     -1.78262703     0.19754745    -0.26681310
N     -1.51934309    -0.08801412     0.94736061
N     -0.34538335     0.40407593     1.44700545
N     -0.00505234     0.40603867     2.69796088
N      1.19298273    -0.13008507     2.89871534
N      2.43416182     0.30232824     3.06741175
N      2.10381947    -0.42394444     1.85492536
N      1.90897830     0.22052487     0.66414811
N      0.69510858     0.55494732     0.42139484
N      0.28542695     0.98810004    -0.71995443
