11
N11_anion anion rank 10 E_react=-36.69 kcal/mol
N     -1.91993882     0.11906583    -0.63926691
N     -1.09412738     0.20976778     0.18657157
N     -1.13451597     0.37858310     1.50009905
N      0.04828902     0.42948418     2.06555475
N      0.22350085     0.59218512     3.36186737
N      1.49391671     0.59733328     3.58231124
N      2.17015084     0.44591539     2.49494507
N      1.30669892     0.33493077     1.50513735
N      1.66406674     0.16833078     0.25378792
N      0.64459088     0.07914937    -0.58774209
N      0.56834921    -0.06784458    -1.74738931
