11
N11_anion anion rank 18 E_react=58.98 kcal/mol
N     -1.57333182     3.28778910     0.24907937
N     -2.95039887     2.51605017     0.76880293
N     -1.96246957     2.09729327     0.11520865
N     -0.25087046     0.19996826     1.24188834
N     -1.06915304    -0.70443653     1.04198614
N     -2.23790830    -0.16233989    -0.61327747
N     -1.66281655     1.07579091    -0.65000904
N     -0.23148622     0.94523073    -1.01793217
N      0.54178874     0.41486228     0.06004950
N      0.02630776    -0.42863764    -0.95358648
N     -1.20818238    -1.04240029    -0.32074857
