11
N11_cation cation rank 3 E_react=-154.44 kcal/mol
N     -2.48638577     0.25527930     1.07236824
N     -2.45790261     1.25917526     0.12956650
N     -1.47380467     1.25117494    -0.57822957
N     -0.37312231     0.56766594    -0.31010944
N      0.52862224     0.23100963    -1.20802252
N      0.48064964    -0.88373487    -1.98645748
N      1.51674928    -0.84344432    -2.66539555
N      2.20607951     0.24263395    -2.39614157
N      1.66368770     0.91164440    -1.50707296
N     -0.24215088     0.26793886     1.05507791
N     -1.36832738    -0.01324220     1.48880589
