11
N11_cation cation rank 8 E_react=-5.12 kcal/mol
N     -1.14714198     1.73085068    -0.08037279
N     -1.74146998     1.41998910    -1.07268444
N     -1.35110648    -0.00837835    -1.40276344
N     -1.11208028    -0.46786332    -0.14099709
N     -0.60409501     0.69382879     0.54499381
N      0.68920679     0.14606033     0.48103866
N      1.52183406     0.33319007    -0.70245706
N      0.79415985     1.11501186    -1.57839393
N      0.00596457     0.12339567    -1.77507573
N      0.77574991    -0.79492662    -1.19542127
N      0.16307953    -1.04504621     0.01648428
