11
N11_anion anion rank 16 E_react=37.83 kcal/mol
N      0.91638478     0.01630989     0.85134565
N      0.19606007    -0.39960114    -0.03929863
N      0.27516755     0.36075730    -1.29401906
N     -0.21664023     1.62231215    -0.82995990
N      0.63316682     2.82242202    -1.06370349
N      1.65409343     2.77249199    -1.86608099
N      2.34367051     1.59435544    -1.87362992
N      2.52120279     0.84771576    -0.66017392
N      1.71750311     1.19354949     0.48935197
N      0.65942189     2.12814329     0.25324465
N      1.64997586     0.34467786    -1.73739987
