11
N11_anion anion rank 14 E_react=-6.49 kcal/mol
N     -0.62516175     0.27301490     1.99955991
N     -1.01756317     1.46427182     1.61608259
N     -0.90928417     1.89416548     0.39016766
N     -0.60569369     1.05481419    -0.52648827
N     -0.13431852    -0.37484271    -0.06618013
N     -0.08791663    -0.59859764     1.19264196
N      0.42593587    -0.92530675    -1.09589207
N      0.22798194    -0.05463172    -2.13425521
N     -0.12888093    -0.56256222    -3.34619460
N      1.11273928    -0.09462121    -3.16469471
N     -0.26514821     1.17013874    -1.77066016
