11
N11_anion anion rank 4 E_react=-76.36 kcal/mol
N     -1.54178543     1.46571411     0.76843833
N     -0.84472813     1.24438446    -0.27508296
N      0.39153127     0.70080575    -0.08732468
N      0.99949591     0.92627506     1.23461852
N     -0.05000140     0.61382873     2.21895780
N     -1.27577775     1.15947223     1.97644369
N      0.28402204    -0.47181792     2.84836328
N      1.37402197    -0.95225721     2.45994997
N      1.85930586    -0.19543659     1.35692421
N      1.82567092    -0.86328784     0.10082408
N      0.94922672    -0.34078077    -0.62623624
