11
N11_anion anion rank 17 E_react=38.71 kcal/mol
N      0.90492239    -1.75274299     0.48327517
N     -0.26031550    -2.15440708     0.81535213
N     -0.87295582    -2.63629693    -0.33987898
N      0.09197264    -2.34702416    -1.41541858
N      1.15958690    -1.72875815    -0.76730811
N     -0.25255281     0.40855985    -0.88114365
N     -1.11977688     0.14855716     0.08549188
N     -2.00674676    -0.47049311    -0.78842984
N     -1.89153629    -1.92558662    -1.06467738
N     -0.92862325    -1.63691569    -2.13795902
N     -1.05507771    -0.18517881    -1.84918357
