11
N11_anion anion rank 1 E_react=-126.19 kcal/mol
N     -2.10222530     0.82300901    -0.11615065
N     -1.04667790     0.85879355     0.63631964
N     -0.30325871    -0.15145495     0.22754155
N      0.86428026    -0.55128209     0.66160104
N      1.38698466     0.13811587     1.64288884
N      0.90735882     1.19381119     2.27205191
N      1.80698773     1.49292480     3.15685177
N      2.79778169     0.65611295     3.07477788
N      2.56721243    -0.20611074     2.13636811
N     -0.89628724    -0.79926044    -0.76423247
N     -2.01117646    -0.16766691    -0.95217190
