11
N11_cation cation rank 2 E_react=-197.85 kcal/mol
N     -3.65459783    -0.16620826     0.05768250
N     -2.75662632     0.40806736    -0.25031021
N     -1.92746813     1.21258788    -0.61349701
N     -0.63925079     1.06602392    -0.77652749
N      0.14934759     2.04127147    -1.18231141
N      1.34263745     1.67242950    -1.26635996
N      1.40525129     0.42637702    -0.91831882
N      2.20598113    -0.56823482    -0.76006055
N      1.48969692    -1.54867450    -0.36430044
N      0.24741813    -1.27494517    -0.24512341
N      0.13171156    -0.02258140    -0.58652320
