11
N11_cation cation rank 4 E_react=-139.15 kcal/mol
N     -2.58664692    -0.14464053    -0.88478680
N     -1.90469287    -0.24873541    -0.01642976
N     -1.31172710    -0.51442692     1.00674535
N     -0.19677003    -0.04840412     1.49264008
N      0.20606942    -0.43606959     2.65047571
N      1.39861212    -0.22144104     3.11330773
N      2.30259147     0.36652038     2.47237942
N      1.97879295     0.90296353     1.36870215
N      0.60915451     0.84426310     0.84691685
N      1.14698705     1.34414166    -0.29343839
N      2.33025027     1.44280349     0.21891383
