11
N11_anion anion rank 3 E_react=-81.97 kcal/mol
N     -1.22129141    -0.31765738    -0.83651606
N     -2.01254733     0.00001344     0.15748670
N     -1.61943225     0.37226511     1.32076493
N     -0.36170386     0.46647545     1.61364712
N      0.08392477     0.83047549     2.75101924
N      1.26975434     0.95814905     3.14876404
N      2.41914686     0.77498737     2.57488678
N      2.68898833     0.38835619     1.36588759
N      1.96671587     0.07457001     0.38579626
N      0.69655773     0.04160718     0.28423104
N      0.06086896    -0.30233990    -0.79009063
