11
N11_anion anion rank 8 E_react=-48.77 kcal/mol
N     -0.87333540     1.25560496     0.28323102
N     -1.63506610     0.49363748     1.00184709
N     -1.00155611    -0.34821885     1.85081136
N     -0.80580223    -0.23494133     3.20719065
N      0.45437651    -0.55331987     3.11809689
N      0.34640424    -0.72190236     1.74942257
N      0.96449146    -0.31077417     0.59404855
N      0.35838790     0.99460629     0.13902918
N      1.38486849     1.72957575    -0.31512360
N      2.46359211     1.05690169    -0.10660094
N      2.31462113    -0.07426860     0.45392524
