11
N11_cation cation rank 6 E_react=-100.25 kcal/mol
N     -1.36334917    -0.48353221     0.41451503
N     -1.64060430     0.69002434     0.47016301
N     -0.85494066     1.43814553    -0.52648147
N     -1.40104425     2.65468442    -0.96535661
N     -0.51591154     2.77806098    -0.15948749
N     -0.12898831     0.60573291    -1.31212131
N      1.23148846     0.55317519    -1.03685313
N      1.76416635    -0.51638676    -1.28288584
N      1.29323474    -1.71595101    -1.33206158
N      0.20015464    -1.84974840    -0.69857067
N     -0.59008036    -0.90817006    -0.47664310
