11
N11_cation cation rank 7 E_react=-72.45 kcal/mol
N     -2.02028702     2.36686361     0.24009730
N     -1.24490608     1.66870528     0.59756926
N     -0.41706574     0.88836375     1.09370308
N     -0.31519003    -0.49375428     0.91391492
N      0.73269469    -0.57642883    -0.00921231
N      1.57685287     0.53478039     0.32999389
N      0.92155255     1.13423332     1.41087301
N      1.04847362     0.27169811     2.49836877
N      0.20664692    -0.83644209     2.16009850
N      1.58054607    -0.91641764     2.03468531
N      1.90166413    -0.75470462     0.70578627
