11
N11_anion anion rank 15 E_react=19.85 kcal/mol
N     -2.53345745     0.02156403     0.16141930
N     -1.41318724     0.14483422    -0.10131865
N     -0.58921041     1.32692449    -0.16374855
N     -0.78676818     2.68070607    -0.36951054
N      0.39524552     2.74053234    -1.01227738
N      0.56726071     1.43873671    -0.91076187
N      1.45351223     0.48639555    -1.19206358
N      0.76581290    -0.64309045    -1.04087255
N      0.84082340    -1.93133412    -1.30426182
N     -0.32364797    -2.17493117    -0.67295446
N     -0.38212766    -0.84409445    -0.29939805
