11
N11_anion anion rank 6 E_react=-68.77 kcal/mol
N     -0.69762894    -0.77098491     2.73084410
N     -0.17490142    -0.88333342     1.72309483
N     -2.09528920     2.28086769    -1.88979177
N     -3.08898044     2.84130750    -1.98245936
N     -0.93969165     2.01800016    -1.83853516
N     -0.36405477     0.81308616    -1.63671632
N      0.92047020     0.86419496    -1.68584198
N      1.64405352    -0.17804572    -1.70207201
N      1.50786074    -1.34752234    -1.17777102
N      0.99790707    -1.66011692    -0.08962229
N      0.28435693    -0.73134214     0.64322096
