11
N11_cation cation rank 5 E_react=-126.90 kcal/mol
N      1.49423429     0.81802707    -0.99581400
N      0.67189838     1.61156813    -0.43145355
N      0.27376099     1.01492024     0.63653674
N     -0.55309940     1.26246571     1.64995230
N     -1.41870017     0.04334407     1.65562281
N     -0.87461775    -0.98991126     1.69404168
N      0.61984683    -0.96506267     1.73277863
N      0.91525193    -0.20332691     0.68183397
N      1.66484019    -0.27411778    -0.36133740
N      0.86082306    -0.03212973     2.87606639
N      0.31674465     1.00112415     2.83764944
