11
N11_anion anion rank 7 E_react=-56.37 kcal/mol
N     -0.41184070     0.64391731    -0.17944733
N      0.83759627     0.43339592     0.18885414
N      1.21556747    -0.21266113     1.34009136
N      0.37997950    -0.70956464     2.23225677
N     -0.82437670    -0.11079351     2.06800964
N     -1.50749796     0.84682024     2.78713153
N     -1.86624272     1.46007719     1.69443906
N     -1.20277982     0.53609107     0.91543075
N      2.51625180    -0.37159284     1.28536164
N      2.91108484     0.13013310     0.15684888
N      1.92527715     0.63850780    -0.51465411
