11
N11_anion anion rank 5 E_react=-74.54 kcal/mol
N     -0.76297202    -0.84550632    -1.98427503
N     -0.14693621    -0.22880212    -1.24880030
N     -1.23401062     0.13415154     2.94051735
N     -2.32051283     0.19038463     3.28271779
N     -0.17525076     0.29732420     2.43964658
N      0.96453877    -0.46858720     2.65424602
N      2.04292430    -0.13387252     2.14131596
N      2.36084892     0.95715840     1.55060910
N      1.74791117     1.74177610     0.74495839
N      0.98401809     1.47001504    -0.19346183
N      0.51038002     0.17291957    -0.35156739
