11
N11_cation cation rank 1 E_react=-200.52 kcal/mol
N     -2.29751926     0.32737300     1.09578610
N     -2.42014764     1.00156650    -0.00735014
N     -1.44606297     0.95899732    -0.75152361
N     -0.79673122     1.22285868    -1.77052442
N      0.34057667     0.74984547    -1.88189203
N      1.41727168     0.55232535    -2.43521061
N      2.24199329    -0.20406495    -1.77627905
N      1.82121674    -0.63053286    -0.65879195
N      0.67591512    -0.28731309    -0.30840640
N     -0.34868730    -0.16736889     0.33983452
N     -1.19372612    -0.27757353     1.24870760
