11
N11_anion anion rank 11 E_react=-33.52 kcal/mol
N      0.75611050     3.38952616     0.01424123
N      0.93646136     2.28140247     0.19618264
N      1.19348118     1.17094623     0.44821310
N     -0.66042829     0.25807726     3.09212020
N     -0.82804788     0.66514433     4.14081927
N     -0.57620682    -0.11743197     1.99003336
N      0.74579815    -1.22248005     1.50983314
N      1.23790710    -1.85424950     2.33036635
N      0.70274605    -1.18941880     0.23737095
N      0.43177724    -0.16362330    -0.46720797
N      0.03138440     0.06900720    -1.51609227
