12
N12_neutral neutral rank 3 E_react=-112.01 kcal/mol
N     -2.47436906     1.09340439    -0.49202236
N     -1.47377887     0.57893672    -0.70451288
N     -0.18627464     1.19350843    -0.97720167
N      0.24048871     2.33526644    -0.45870836
N      1.34218678     2.56770920    -1.02448337
N      1.60788294     1.60583009    -1.90116406
N      0.68307641     0.75161722    -1.88423564
N     -1.18904283    -0.84394370    -0.76590117
N     -0.08937115    -1.41481178    -0.27742384
N     -0.26728565    -2.65310779    -0.41952097
N     -1.44728320    -2.87134948    -0.98904873
N     -2.02905291    -1.77306559    -1.19681220
