12
N12_neutral neutral rank 1 E_react=-147.92 kcal/mol
N     -3.30568073     0.39392195     1.47127451
N     -2.19145889     0.87784965     1.16856961
N     -1.74976139     0.16340302     0.12761083
N     -0.58974353     0.41867950    -0.44007504
N     -0.29058512    -0.32331366    -1.40807326
N      0.86947867    -0.06808159    -1.97569952
N      1.31076964    -0.78194607    -3.01723178
N      2.42518700    -0.29828333    -3.31966139
N      2.71426620     0.71854771    -2.49048011
N      1.78249542     0.87182750    -1.66991834
N     -2.66231593    -0.77719600    -0.17748974
N     -3.59418522    -0.62375789     0.64291821
