12
N12_cation cation rank 1 E_react=-181.64 kcal/mol
N     -3.23814875    -0.36589513     1.58443836
N     -2.05606043    -0.64870350     1.35227609
N     -1.76753501    -0.08310218     0.14729329
N     -0.59875083    -0.19577828    -0.38436189
N     -0.28134268     0.29082032    -1.46466631
N      0.88748927     0.17809548    -1.99623378
N      2.01729817    -0.45956307    -1.55330409
N      2.85349463    -0.26204669    -2.43691893
N      2.35826567     0.46074536    -3.43324124
N      1.17616134     0.74360826    -3.20122038
N     -2.89742409     0.55454198    -0.29547926
N     -3.73350771     0.35694629     0.58822205
