12
N12_neutral neutral rank 9 E_react=94.51 kcal/mol
N     -0.84208600     0.00520480    -0.26776501
N     -0.75035004     1.24282407     0.45098947
N     -0.65044568     0.52416350     1.67569613
N     -0.74218171    -0.71345575     0.95694164
N      0.53498931    -1.09726878     1.45481918
N      0.62672532     0.14035046     2.17357372
N      1.80399198     0.47519818     1.44674471
N      1.70408764     1.19385886     0.22203809
N      0.42691664     1.57767170    -0.27583958
N      0.33518072     0.34005243    -0.99459408
N      1.61235177    -0.04376040    -0.49671643
N      1.71225605    -0.76242107     0.72799017
