12
N12_neutral neutral rank 4 E_react=-102.34 kcal/mol
N     -1.71666851    -0.13074048    -1.63217455
N     -2.09028094    -0.12056331    -0.38977463
N     -1.28566996    -0.10948617     0.56548720
N      0.02919293     0.02580872     0.18577937
N      0.93269121     0.45450361     0.99322297
N      0.62092490     1.16985741     2.12567383
N      1.51332936     1.14973769     2.99931803
N      2.67860555     0.61124248     2.81113451
N      3.05218320     0.60104803     1.56871767
N      2.24754571     0.58986966     0.61348070
N      0.34093983    -0.68953396    -0.94666946
N     -0.55143504    -0.66933150    -1.82034201
