12
N12_neutral neutral rank 2 E_react=-134.68 kcal/mol
N     -2.68858724     1.54769135     0.41369146
N     -2.10721960     1.00070396     1.41689980
N     -1.21051406     0.12173013     1.30196997
N     -0.78217363    -0.06062141     0.02913047
N      0.42916221    -0.31282952    -0.20981802
N      0.77763926    -0.42187214    -1.47825305
N      0.05356573    -0.09853775    -2.55167597
N      0.80851000    -0.32577836    -3.54219562
N      1.97131013    -0.78787760    -3.11781100
N      1.97705614    -0.84679309    -1.85362470
N     -1.79853305    -0.04089920    -0.85752397
N     -2.71233164     0.79476858    -0.64223498
