12
N12_neutral neutral rank 8 E_react=-14.76 kcal/mol
N     -1.38064638     2.46504966    -1.02896417
N     -2.35717879     1.75857955    -0.55383571
N     -1.57257622     0.64835318    -0.50290952
N     -0.62526676     1.35035918    -1.22299906
N      0.65008708     0.81399591    -1.13612563
N      1.91991113     0.87553810    -1.62042334
N      2.02265406    -0.41581368    -1.60257341
N      0.69342731    -0.55082007    -1.34620640
N     -0.25768700    -1.25554984    -0.62473934
N     -0.83887808    -2.47131768    -0.43789065
N     -2.00664058    -1.92699798    -0.30184030
N     -1.52874512    -0.72128905    -0.71253656
