12
N12_neutral neutral rank 5 E_react=-79.39 kcal/mol
N     -0.45034431     1.89397948     1.33033750
N     -1.31554690     1.12123552     0.76507604
N     -0.89771602     0.30237832    -0.10633607
N      0.48356587     0.12382665    -0.46228514
N      1.02750759     1.49995754    -0.34783450
N      0.59814378     2.12544336     0.58741679
N      0.01748927    -0.20737525    -1.74214764
N      0.43532044    -1.02622595    -2.61356524
N     -0.42988162    -1.79897434    -3.17882209
N     -1.47835881    -2.03045375    -2.43589300
N     -1.90771479    -1.40497387    -1.50063149
N     -1.36379436    -0.02883401    -1.38619666
