12
N12_neutral neutral rank 6 E_react=-71.56 kcal/mol
N      1.30436925     0.26062783     3.03270385
N      1.55978118     1.38841759     2.43218017
N      1.46955361     1.64767708     1.25802917
N      1.38649296     0.46187954     0.40716992
N      0.85702434     0.75100094    -0.88594867
N      0.61433421    -0.49885462    -1.50020836
N     -0.10893481    -1.26087296    -0.88404755
N     -0.61890768    -0.78325648     0.33872268
N     -1.18911125     0.52849300     0.01545610
N     -0.47847231     1.25498096    -0.62061950
N      0.48924482    -0.38621889     1.10254489
N      0.48498581    -0.48024934     2.37638022
