12
N12_neutral neutral rank 7 E_react=-46.96 kcal/mol
N     -2.20397091     0.38615388    -0.84880825
N     -1.63055123     0.64986766    -2.12905985
N     -1.41039822     1.55572710    -1.04815724
N     -0.17044638     1.26950208    -0.55174614
N     -0.37075162     0.22069169     0.36801563
N      0.75027988    -0.55485217     0.28055495
N      0.53012653    -1.46071188    -0.80034741
N      1.32369936    -0.29113879    -0.99969677
N      0.51241232     0.62685549    -1.60379041
N     -0.50951973    -0.12567618    -2.21652046
N     -0.70982520    -1.17448669    -1.29675856
N     -1.39268378    -0.53184019    -0.24471447
