13
N13_anion anion rank 1 E_react=-92.60 kcal/mol
N      0.81330122     1.88809264     1.55092613
N      0.28518387     2.59737205     0.60716130
N     -0.33400974     2.19114155    -0.37538116
N     -0.76200276     0.77953452    -0.22385560
N      0.47044102     0.15572034     0.21523348
N      1.10201753     0.64145929     1.20526877
N      0.91180303    -0.74381566    -0.63202165
N      0.05223872    -0.76454348    -1.62323911
N     -0.01685504    -1.63021818    -2.55104848
N     -1.21610329    -1.87170270    -3.06137955
N     -2.20196798    -1.55828251    -2.28516001
N     -2.20039187    -0.73485560    -1.37094738
N     -1.03381069     0.17781446    -1.44072103
