13
N13_cation cation rank 3 E_react=-156.81 kcal/mol
N     -1.77897667     2.32829524     1.09306315
N     -0.74415242     1.86403874     0.74443580
N     -0.79729189     0.80625957    -0.17123179
N     -2.63408603     0.79952952    -0.26949746
N     -2.88563251     1.65566699     0.45680260
N     -0.25768824     1.09505568    -1.40873468
N      0.37952058     0.14476777    -1.85880399
N      0.99368789    -0.21396752    -2.85993725
N      1.39425945    -1.53165471    -2.87074363
N      1.34873907    -2.31394538    -1.96429101
N      0.88448911    -2.08907508    -0.68726483
N      0.31182697    -1.01676589    -0.51299559
N     -0.34491119    -0.40044381     0.32395305
