13
N13_anion anion rank 4 E_react=31.13 kcal/mol
N      0.20457808     1.72202348     1.27120027
N     -0.83909571     0.98579519     1.57870067
N     -1.43515857     0.22317936     0.79695961
N     -1.22607980     0.46916892    -0.59409903
N      0.11973566     0.89999922    -0.82861599
N      0.80148894     1.46481859     0.16378298
N      0.73839670    -0.22606836    -1.54283946
N      1.30833798     0.20337019    -2.73822849
N      2.06677163    -0.22802938    -1.74050197
N     -0.02851344    -1.30108998    -1.36343935
N     -1.26591125    -0.77650642    -1.31989240
N     -2.17296276    -0.79355246    -2.37327667
N     -2.40178746    -1.51530835    -1.29487818
