13
N13_cation cation rank 1 E_react=-213.34 kcal/mol
N      0.88911540     1.97644851     1.36481527
N     -0.34719860     1.77463982     1.82553147
N     -1.16082150     1.14181776     1.16166698
N     -1.33924388     0.46118359     0.19751993
N      1.00687511     0.63319653    -0.51708318
N      1.29274581     1.36343864     0.38274640
N      1.06476726    -0.54438127    -0.93980141
N      0.23019292    -0.89485677    -1.85999267
N      0.21077635    -1.71090920    -2.81812730
N     -0.95581185    -1.85226999    -3.32981485
N     -1.84533718    -1.15171393    -2.72923261
N     -1.38312826    -0.50421980    -1.75380657
N     -1.79313256     0.43542613    -0.96954946
