13
N13_anion anion rank 2 E_react=22.40 kcal/mol
N      0.22777936     2.46512861    -0.15240348
N     -0.94448245     2.72520350    -0.16650955
N     -1.93395397     3.27528868    -0.08652320
N     -1.09836021     0.19939525    -0.82821163
N      0.19011749     0.31163010    -0.67461087
N      0.89135802     1.36053821    -0.40480275
N      0.82074051    -0.95137002    -0.96598059
N      2.14874989    -0.97185516    -1.20472525
N      1.68959693    -1.37639425    -0.00150177
N     -0.10169461    -1.68795235    -1.58607920
N     -1.27242145    -1.09094027    -1.26179469
N     -2.41903204    -1.35939567    -1.95275446
N     -2.32859750    -1.77147663    -0.69923057
