13
N13_cation cation rank 2 E_react=-172.88 kcal/mol
N     -3.51646680     0.43935393    -1.80057124
N     -2.66038617     0.45989845    -1.07957695
N     -1.92816147     0.60512680     1.14254764
N     -0.82439625     0.62508599     1.65249110
N      0.11641942     0.60253753     0.69834080
N      1.39001661     0.56417089     0.94626928
N      1.92689573     0.95892671     2.13995172
N      3.03248597     0.49858117     2.43393071
N      3.61363428    -0.36973853     1.62938226
N      3.34717984    -0.20085635     0.40733025
N      2.33477220     0.36928476    -0.05240274
N     -0.40847351     0.54426091    -0.52838484
N     -1.73673784     0.53982375    -0.24920100
