13
N13_cation cation rank 4 E_react=-19.24 kcal/mol
N      2.71329168    -1.49085999    -0.68319045
N      3.01365303    -0.79824705    -1.79898490
N      2.47110067     0.30284324    -1.79040757
N      1.76154109     0.36056771    -0.60343804
N      1.02573995     1.37974644    -0.16887897
N      1.45908688     2.49030839     0.63790026
N      0.30241707     2.34450339     1.43628010
N     -0.39854896     3.23388380     0.59841929
N      0.74688455     3.36745441    -0.21059516
N      0.31572085     2.28798341    -1.01318638
N     -0.82679990     2.14845188    -0.19136921
N     -0.13457061     1.25164480     0.65524953
N      1.97541969    -0.84014343     0.05095251
