13
N13_anion anion rank 3 E_react=24.01 kcal/mol
N     -0.84940393     1.20461175     2.43832554
N     -1.73123419     0.70968378     1.65188895
N     -1.46679246     0.34621671     0.46632063
N     -0.31009430     0.78589099    -0.12341112
N      0.49456801     1.67199002     0.53917367
N      0.37110544     1.48711404     1.96354032
N      1.81216961     0.55688654     0.73067869
N      1.41169996     0.39703010     2.09305971
N      2.63273487     0.91777165     1.62838656
N      1.78834671    -0.19847484    -0.29926186
N      0.49078123    -0.26610191    -0.69514879
N     -0.12237538    -1.41733776    -1.04933098
N      0.16527166    -0.55883707    -2.00413348
