14
N14_neutral neutral rank 1 E_react=-140.21 kcal/mol
N     -2.07482323     0.18276493    -1.76653328
N     -2.58648948     0.64675098    -0.65251568
N     -1.93522833     0.68054606     0.42449327
N     -0.67414111     0.33344984     0.43160971
N      0.00441324    -0.04377193     1.46116226
N      1.27874932    -0.11135429     1.27622418
N      2.14679323    -0.66279013     2.08449673
N      3.36078718    -0.33636463     2.01453787
N      3.78590486     0.61487055     1.21920994
N      3.10713057     1.02979866     0.24333474
N      1.89503477     0.57534509     0.05577458
N      1.23820142     0.59789591    -1.05361707
N     -0.01440778     0.31042668    -0.94862576
N     -0.83342114     0.06054559    -1.93740748
