14
N14_neutral neutral rank 5 E_react=-6.87 kcal/mol
N     -0.69646989     0.04180998     0.20265941
N      0.43366917     0.66368213    -0.08143655
N      0.57499746     1.39369357    -1.27296897
N      1.89607801     1.74559789    -1.39217183
N      1.36637584     0.67108909    -2.17928686
N      2.07000916    -0.33031371    -1.33970257
N      1.60991540    -0.07970912    -0.03755305
N      2.62472319     0.70860301    -0.51984006
N     -1.42130410    -0.62801615    -0.79662287
N     -2.63177398    -0.99092418    -0.26155538
N     -2.54820075     0.12951998    -1.15168861
N     -2.72772541     1.07706055    -0.02349420
N     -1.68503958     0.76614712     0.86318486
N     -2.81620901    -0.00986025     0.90923574
