14
N14_neutral neutral rank 4 E_react=-38.65 kcal/mol
N     -1.06766221     1.97558120     2.48132482
N     -0.68304996     1.89473635     1.35255055
N      0.15397714     2.80144148     0.84224692
N      0.72974524     2.56132781    -0.34159308
N      1.31966247     3.44519931    -0.89780712
N      0.66904302     1.29165260    -0.88023379
N     -0.34310821     0.59895111    -0.45579061
N     -0.52738664    -0.54825701    -1.07593740
N     -0.07681017    -0.75431095    -2.37546651
N      0.08633819    -1.96168663    -2.62227782
N     -0.28653020    -2.92459602    -1.86336831
N     -1.30706045    -2.62010660    -1.08502869
N     -1.48664201    -1.46400446    -0.69015812
N     -1.13127831     0.86278146     0.53030954
