14
N14_neutral neutral rank 2 E_react=-99.45 kcal/mol
N     -1.93879970    -0.65620165    -0.51702953
N     -2.04062414     0.62745743    -0.17826185
N     -1.08216294     1.35740106     0.06422358
N      0.11629644     1.05218289    -0.49503412
N      1.23831519     1.32363840     0.33407169
N      1.09878576     1.40246012     1.66130530
N      1.16626267     0.30350879     2.27402060
N      1.28580842    -0.76925171     1.62454705
N      1.40685838    -0.60735068     0.29365315
N      2.57367894    -0.60450891    -0.37001624
N      3.02935612     0.53368994    -0.65378090
N      2.38138545     1.55723885    -0.30830907
N      0.26712946    -0.46851612    -0.51742091
N     -0.80278504    -1.17586443    -0.36095575
