14
N14_neutral neutral rank 3 E_react=-62.32 kcal/mol
N      1.57062782     2.16588232     1.46610026
N      1.66187841     2.50680255     0.29302080
N      0.91232474     1.77158773    -0.62667373
N     -0.43851814     1.79102536    -0.06615924
N     -0.52802417     1.45661907     1.08450267
N      0.72866902     1.08543329     1.73432639
N      1.14638818     0.03232561     0.87964376
N      0.53532622    -1.23794218     1.04406873
N      1.21454253    -2.11300209     0.19486920
N      1.30578559    -1.77208040    -0.97821311
N      0.71896643    -0.55178628    -1.31693192
N     -0.64304847    -0.66665784    -0.79631251
N     -0.73254872    -1.00106501     0.35435137
N      1.24713557     0.40874286    -0.41557968
