15
N15_cation cation rank 1 E_react=-252.48 kcal/mol
N     -3.57977451    -0.23133783     0.99324766
N     -3.20368853    -1.47926395     1.21242286
N     -1.97109238    -1.58675585     1.13326013
N     -1.52647514    -0.33816864     0.84662952
N     -0.26029075     0.01547622     0.68715908
N      0.53398290     0.43288877     1.67774917
N      1.64060689     0.67898137     1.18614104
N      1.56345363     0.42093685    -0.12299661
N      2.56830455     0.57188369    -0.97222541
N      3.48950900    -0.37224560    -1.28653845
N      4.25130764     0.17796518    -2.09527238
N      3.87391892     1.42444173    -2.32034985
N      2.86129581     1.70246021    -1.66124103
N      0.37100932     0.00072628    -0.45837213
N     -2.59706045     0.49042281     0.76863111
