15
N15_cation cation rank 2 E_react=6.79 kcal/mol
N     -1.27480550    -1.01781677    -0.90691546
N     -1.98148764     0.05258249    -0.59127861
N     -3.17202053     0.07135475     0.21084846
N     -4.18320332     0.56225827    -0.57139477
N     -3.54366187     1.38066123     0.40332343
N     -2.85942410     2.15347737    -0.68549981
N     -2.15463335     1.22045098    -1.40812130
N     -3.49363169     1.34110312    -1.66870933
N     -0.74682910    -0.21200003    -0.00321189
N      0.35673216     0.68226058    -0.21197531
N      0.53275748     1.42655881     0.93016407
N      1.35742544     0.30153520     0.64186373
N      0.66785916    -0.47727697     1.73920375
N     -0.66064743    -0.46679457     1.40702834
N     -0.15147470     0.65377155     2.01901271
