16
N16_neutral neutral rank 1 E_react=-188.30 kcal/mol
N     -0.76748645    -1.54432812    -2.30703444
N     -0.16324775    -0.80110307    -3.11690460
N      0.61300985     0.16152859    -2.73026129
N      0.85296755     0.23362900    -1.29216815
N      1.29125880     1.57685425    -0.92536705
N      1.12836948     1.89415908     0.32022856
N      0.52412929     1.15093396     1.13009906
N     -0.25212356     0.18830441     0.74345883
N     -0.49208415     0.11620093    -0.69463809
N     -0.93037372    -1.22702438    -1.06143982
N     -1.49607740    -1.97800991    -0.16494600
N     -1.52354701    -1.62497897     1.05833367
N     -0.85849343    -0.64753811     1.53173655
N      1.85697115     2.32784612    -1.82186222
N      1.88443501     1.97481288    -3.04514071
N      1.21938335     0.99737332    -3.51855028
