16
N16_neutral neutral rank 2 E_react=-151.60 kcal/mol
N      0.01185286     0.51212730    -0.62808694
N      0.66046327     0.20745992     0.37353463
N      0.76272784     0.86295452     1.45367366
N      0.77630175     0.33199624     2.59748646
N      1.20780923     1.01562959     3.69857767
N      1.65328424     0.31430620     4.63190837
N      1.62577201    -0.98911712     4.60820390
N      0.67032792    -1.47014129     3.88491662
N      0.13990800    -0.86104913     2.93303145
N     -0.09039440    -0.14338451    -1.70822517
N     -0.10398053     0.38758220    -2.85203565
N      0.53233232     1.58067595    -3.18756745
N      0.00184002     2.18975581    -4.13942130
N     -0.95359009     1.70868196    -4.86269347
N     -0.98100317     0.40525606    -4.88643777
N     -0.53545446    -0.29605794    -3.95313442
