7
Properties=species:S:1:pos:R:3:forces:R:3:charge:R:1 formula=N7 topology=ring-4-substituted n_edges=7 n_rings=1 ff_energy=111.141 mace_energy_eV=-10428.316151 delta_E_eV_atom=0.603227533465315 sg=P1 energy=-549.3116568298452 free_energy=-549.3116568298452 dipole="-0.20004665149533374 0.08731767596605051 -0.30603313835832613" pbc="F F F"
N       14.26715038      15.68763555      13.64102696      -0.00006808       0.00003348      -0.00020501       0.31125272
N       16.99122905      14.50199810      16.62126070      -0.00008776       0.00002640      -0.00004342      -0.05708777
N       15.76792286      15.03460570      15.22601438      -0.00005365       0.00002340      -0.00008289       0.13659168
N       14.61805873      15.53276542      14.77921171       0.00001066      -0.00000953      -0.00014090      -0.09332552
N       16.68863253      15.64787206      16.06242616       0.00000543      -0.00014434       0.00008577      -0.07435921
N       15.95054361      13.93979338      16.05753800       0.00011166       0.00011041       0.00008260      -0.07435827
N       13.66852294      15.94890696      12.72992765       0.00008173      -0.00003983       0.00030386      -0.14871362
