8
Properties=species:S:1:pos:R:3:forces:R:3:charge:R:1 formula=N8 topology=bicyclic-5-5 n_edges=9 n_rings=2 ff_energy=179.7437 mace_energy_eV=-11914.594506 delta_E_eV_atom=1.038364430675756 sg=P1 energy=-628.7338675074448 free_energy=-628.7338675074448 dipole="-0.11980048127551621 0.08262558590839542 -0.08132569698156365" pbc="F F F"
N       13.91191296      16.58162844      13.87142583      -0.00008061      -0.00012890      -0.00012492      -0.03232748
N       16.26422599      14.45437709      16.31688291       0.00000921      -0.00003734       0.00000848       0.30040767
N       14.53725663      15.54783972      12.97556009       0.00021860       0.00009796       0.00001667       0.01929683
N       14.80773772      14.29000455      13.29767399      -0.00000994      -0.00015471      -0.00006949      -0.03913581
N       15.41012486      13.91340985      14.28604746       0.00005373      -0.00000783       0.00015964      -0.01755005
N       16.76376048      14.46740081      17.32386576       0.00002660       0.00002410       0.00000689      -0.18194260
N       13.26922172      16.11220048      12.95221173      -0.00017519       0.00021519       0.00007861       0.04745840
N       15.67628839      14.73588553      15.31456582      -0.00004241      -0.00000848      -0.00007588      -0.09620695
