8
Properties=species:S:1:pos:R:3:forces:R:3:charge:R:1 formula=N8 topology=ring-4-substituted n_edges=8 n_rings=1 ff_energy=101.1112 mace_energy_eV=-11918.749363 delta_E_eV_atom=0.5190072847992724 sg=P1 energy=-627.8565846153738 free_energy=-627.8565846153738 dipole="0.49399797874860496 0.43577780658584253 -0.3518526196761835" pbc="F F F"
N       14.88272027      14.47296026      16.36863913       0.00000966       0.00022928      -0.00008297      -0.30279262
N       15.52871539      15.94837067      14.67683604       0.00028319      -0.00007062       0.00031295      -0.11818149
N       13.54822247      13.86591080      16.05025212      -0.00000883      -0.00009664      -0.00008872       0.34495826
N       13.58988141      14.64897834      14.77127015      -0.00008719      -0.00014810      -0.00008170      -0.30283128
N       16.44473213      15.81290959      13.91975516      -0.00005611      -0.00004978      -0.00000628       0.33705066
N       12.83300559      13.12919045      16.54793113      -0.00003441       0.00008463       0.00004963      -0.22611993
N       17.31299474      15.90205563      13.22636299      -0.00008528       0.00008744      -0.00009492      -0.12731982
N       14.72623115      15.04941439      15.22725257      -0.00002103      -0.00003621      -0.00000801       0.39523622
