7
Properties=species:S:1:pos:R:3:forces:R:3:charge:R:1 formula=N7 topology=bicyclic-4-4 n_edges=8 n_rings=2 ff_energy=285.3627 mace_energy_eV=-10432.336157 delta_E_eV_atom=0.02894105858263174 sg=P1 energy=-550.0046493840589 free_energy=-550.0046493840589 dipole="0.04337643612405908 0.014500125470201372 0.1477717348593972" pbc="F F F"
N       14.69637933      15.78564271      17.30076664       0.00002855      -0.00001390      -0.00005948      -0.16948994
N       13.72280403      15.48327059      14.07017016       0.00006221      -0.00000535       0.00014989      -0.05698977
N       15.85639365      14.66947392      15.64229132       0.00016302      -0.00006513       0.00014545      -0.05758966
N       13.20120776      15.52467524      13.09730039      -0.00007310       0.00001773      -0.00015195      -0.01134647
N       15.73285227      14.40909895      14.40424242      -0.00004978      -0.00000585      -0.00015036       0.20778828
N       16.23460309      13.88087237      13.51743360       0.00004681      -0.00004792      -0.00010855      -0.18031450
N       15.08680710      15.30457987      16.34940924      -0.00017771       0.00012042       0.00017499       0.26794206
