9
Properties=species:S:1:pos:R:3:forces:R:3:charge:R:1 formula=N9 topology=ring-5-substituted n_edges=9 n_rings=1 ff_energy=36.0677 mace_energy_eV=-13409.565117 delta_E_eV_atom=0.4109980668240496 sg=P1 energy=-708.4116225190811 free_energy=-708.4116225190811 dipole="-0.2124145509858827 -0.3981636680081367 0.009284838331258993" pbc="F F F"
N       13.88892433      13.42632294      15.66128321       0.00003800      -0.00002578      -0.00012425       0.31234479
N       13.55385536      12.62026945      16.36535072       0.00007380       0.00012416      -0.00007471      -0.16592024
N       14.72441048      15.34789654      14.78768004      -0.00004842      -0.00017595      -0.00009558       0.16482008
N       16.60307126      17.67917409      16.33158518       0.00001162       0.00001686       0.00007771      -0.18289750
N       15.14824850      17.12814494      13.46814393       0.00000591      -0.00004713      -0.00000740      -0.20344526
N       16.01017424      16.76963587      16.02628102      -0.00007570      -0.00002093      -0.00004853       0.29290782
N       15.43460653      15.71758123      15.96237997       0.00012934       0.00004523       0.00007518      -0.19331604
N       14.71848386      16.06727698      13.71430718      -0.00002826       0.00008879      -0.00005127       0.09321637
N       14.27170238      14.07538305      14.72990460      -0.00010629      -0.00000525       0.00024885      -0.11771000
