7
Properties=species:S:1:pos:R:3:forces:R:3:charge:R:1 formula=N7 topology=ring-5-substituted n_edges=7 n_rings=1 ff_energy=34.7908 mace_energy_eV=-10429.643427 delta_E_eV_atom=0.4136166507817052 sg=P1 energy=-551.506487108428 free_energy=-551.506487108428 dipole="0.008886568407368615 -0.13009938446508912 -0.010352456302448753" pbc="F F F"
N       16.57738024      16.55776510      13.72795073       0.00019539      -0.00009454       0.00001932      -0.18153753
N       16.21572624      15.53883814      14.06559819      -0.00009375       0.00006899      -0.00008722       0.25272053
N       14.43003752      14.12434599      15.77969111       0.00007128       0.00009471       0.00020260      -0.03200328
N       16.04261431      14.35719773      14.21800745      -0.00022842       0.00024423       0.00010801      -0.03202359
N       15.27861541      13.61660710      14.94946803      -0.00007581       0.00009889       0.00002700      -0.07831597
N       14.10160561      15.23345959      16.11356812       0.00004533      -0.00046321      -0.00008126       0.25270796
N       13.60999721      16.12893025      16.60292818       0.00008598       0.00005094      -0.00018846      -0.18154812
