8
Properties=species:S:1:pos:R:3:forces:R:3:charge:R:1 formula=N8 topology=bicyclic-4-6 n_edges=9 n_rings=2 ff_energy=107.5211 mace_energy_eV=-11917.695162 delta_E_eV_atom=0.650782416550328 sg=P1 energy=-629.4168728080421 free_energy=-629.4168728080421 dipole="0.031190620153138872 0.035810962072907515 0.048399019651194086" pbc="F F F"
N       14.11030995      15.84529850      14.09178184       0.00001788      -0.00014143       0.00018048      -0.05081427
N       15.24016126      14.65427583      15.80150971       0.00002795      -0.00000524      -0.00008242       0.20443651
N       14.23546588      13.56021831      14.24559399       0.00003345       0.00009602      -0.00001377      -0.03850697
N       14.81851220      15.86664254      15.17619735       0.00004159      -0.00004491      -0.00006156       0.20443652
N       15.44037288      16.52007839      16.13872126      -0.00009270       0.00008890      -0.00010397      -0.11511526
N       13.84284001      14.68913356      13.66332435       0.00007963      -0.00003605       0.00005400      -0.03850698
N       14.92527972      13.50201905      15.30039400      -0.00010305       0.00020578       0.00000144      -0.05081429
N       15.83228771      15.39320642      16.71993729      -0.00000475      -0.00016305       0.00002580      -0.11511525
