4
Properties=species:S:1:pos:R:3:forces:R:3:charge:R:1 formula=N4 topology=ring-3-subst integrity=OK energy_eV=-5958.570319 delta_E_eV_atom=0.8469 sg=P1 energy=-311.3566822197469 free_energy=-311.3566822197469 dipole="0.18821807359464793 0.00879508047227754 -0.10964283132696047" pbc="F F F"
N        0.93013464      -0.55103075      -0.24166707       0.00001953      -0.00010748       0.00003891      -0.05769182
N       -0.28390383      -0.01343293       0.16546031      -0.00009477       0.00018428      -0.00004841       0.37767188
N       -1.27374563      -0.05999190       0.74221842      -0.00001523      -0.00012665       0.00008968      -0.26224230
N        0.62751482       0.62445558      -0.66601167       0.00009047       0.00004985      -0.00008019      -0.05773776
