9
Properties=species:S:1:pos:R:3:forces:R:3:charge:R:1 formula=N9 topology=ring-4-substituted n_edges=9 n_rings=1 ff_energy=118.7938 mace_energy_eV=-13409.403063 delta_E_eV_atom=0.4290040341563781 sg=P1 energy=-707.4339603938249 free_energy=-707.4339603938249 dipole="-0.30483410899804164 0.07386763091188868 0.6360098425366755" pbc="F F F"
N       16.18967285      15.05947856      13.69007626      -0.00006017      -0.00004926       0.00005539       0.21534839
N       16.84596992      14.80912738      11.92109574      -0.00001440      -0.00001344      -0.00003295      -0.03289638
N       15.81454909      15.24123330      14.87059145       0.00007850       0.00006901      -0.00011700       0.01332172
N       14.43875119      15.31122295      16.58879275      -0.00010916      -0.00001591       0.00001329      -0.03933769
N       14.66777177      15.07388785      15.31503604       0.00002086      -0.00003414       0.00005464      -0.00609189
N       17.40195144      15.19695126      13.04778036      -0.00001599       0.00001876       0.00007807      -0.14113172
N       12.61573992      15.20346519      17.98860080       0.00000939       0.00007715       0.00004872      -0.15879196
N       13.41546100      15.21011800      17.19672072       0.00007148      -0.00007449      -0.00008266       0.30285127
N       15.66922896      14.65290745      12.44498920       0.00001950       0.00002230      -0.00001749      -0.15327173
