5
Properties=species:S:1:pos:R:3:initial_charges:R:1:forces:R:3:charge:R:1 N5=T charge=-1 mult=1 PG=D5h |=T CCSD(T)/aug-cc-pVTZ=T src:=T B=T p.28=T (CCSD(T)/aug-cc-pVTZ)=T -=T pentazolate=T energy=-401.6645269356303 free_energy=-401.6645269356303 dipole="2.8018665151255456e-07 -2.1737674761170967e-15 3.364770875691226e-16" pbc="F F F"
N        1.11677757      -0.00000000      -0.00000000      -1.00000000       0.00001654       0.00000000       0.00000000      -0.19999997
N        0.34510310       1.06211877      -0.00000000       0.00000000       0.00000587       0.00001594       0.00000000      -0.19999999
N       -0.90349238       0.65642550       0.00000000       0.00000000      -0.00001414       0.00001029       0.00000000      -0.20000002
N       -0.90349238      -0.65642550       0.00000000       0.00000000      -0.00001414      -0.00001029      -0.00000000      -0.20000002
N        0.34510310      -1.06211877      -0.00000000       0.00000000       0.00000587      -0.00001594      -0.00000000      -0.19999999
