4
Properties=species:S:1:pos:R:3:forces:R:3:charge:R:1 formula=N4 topology=ring-3-subst integrity=OK energy_eV=-5958.570332 delta_E_eV_atom=0.8469 sg=P1 energy=-311.3566822163161 free_energy=-311.3566822163161 dipole="-0.08791431721544052 -0.19448059095244807 0.04448911874479581" pbc="F F F"
N       -0.94020042      -0.52842608       0.25304504      -0.00010474       0.00010773       0.00011516      -0.05771197
N        0.13263821       0.29338331      -0.06703864      -0.00012977      -0.00014398      -0.00041164       0.37766893
N        0.21255363      -1.08113519       0.11493249       0.00017605      -0.00000800       0.00007881      -0.05771084
N        0.59500858       1.31617795      -0.30093889       0.00005846       0.00004425       0.00021767      -0.26224612
