6
Properties=species:S:1:pos:R:3:forces:R:3:charge:R:1 formula=N6 topology=bicyclic-3-3-4-4 n_edges=9 n_rings=4 ff_energy=601.4592 mace_energy_eV=-1433886.873159 delta_E_eV_atom=-237490.78284883234 sg=P1 energy=-470.5922448626966 free_energy=-470.5922448626966 dipole="-0.00017284103857495705 0.0007291808834880372 -0.0003707927452586762" pbc="F F F"
N       17.47261981      13.53278484      14.16962619       0.00031062      -0.00013017      -0.00017308       0.00003239
N       17.11264033      12.58328531      14.58808502      -0.00032470       0.00024409       0.00021655      -0.00020322
N       14.12202564      12.74947302      13.57853452       0.00023250       0.00009691      -0.00004195      -0.00452570
N       14.87976762      15.77546954      13.74121151       0.00006880       0.00004215       0.00019163       0.00469569
N       14.22498245      11.93614795      12.84676301      -0.00013133      -0.00023445      -0.00003828       0.00445366
N       15.08013100      14.93093830      13.06725667      -0.00015588      -0.00001854      -0.00015487      -0.00445282
