10
Properties=species:S:1:pos:R:3:forces:R:3:charge:R:1 formula=N10 topology=bicyclic-3-4 n_edges=11 n_rings=2 ff_energy=325.6993 mace_energy_eV=-14902.411039 delta_E_eV_atom=0.12157382540317485 sg=P1 energy=-786.7254975774589 free_energy=-786.7254975774589 dipole="0.27408504231963887 0.10984411644903924 0.31037442030685297" pbc="F F F"
N       15.22867160      17.08954444      11.11214761      -0.00017958      -0.00035870      -0.00001214      -0.00050751
N       15.71804708      15.99315670      15.74163034       0.00008617      -0.00004601       0.00020438      -0.12629331
N       14.12713637      14.34377726      15.76587542       0.00020261       0.00009270       0.00015756      -0.27421153
N       14.53286031      17.83411321      11.52112174      -0.00002383       0.00026265       0.00017021       0.00060724
N       14.45819975      15.75217604      13.85326785       0.00022326      -0.00010111       0.00007223      -0.29398455
N       12.41467798      12.93798156      15.13083724       0.00016166       0.00016267      -0.00008475      -0.19035752
N       15.97775007      15.63862890      16.85407041      -0.00013856       0.00013674      -0.00023883       0.33893806
N       16.35560976      15.44900528      17.88872077       0.00000349      -0.00007225       0.00015619      -0.14338993
N       14.75824862      15.46390897      14.92213475      -0.00003891       0.00012049      -0.00029181       0.36589040
N       13.24301001      13.65461816      15.37238714      -0.00029630      -0.00019718      -0.00013304       0.32330865
