9
Properties=species:S:1:pos:R:3:initial_charges:R:1:forces:R:3:charge:R:1 N9=T charge=-1 mult=1 PG=C2v |=T B3LYP/aug-cc-pVDZ=T src:=T B=T p.61=T (B3LYP/aug-cc-pVDZ)=T energy=-716.891300021234 free_energy=-716.891300021234 dipole="-4.209384831153895 1.190442145569914 -1.751207733076292e-15" pbc="F F F"
N        0.04134082       0.44995824       0.00000000      -1.00000000       0.00026697      -0.00009237      -0.00000000      -0.37054253
N        1.11127038       0.03267880       0.00000000       0.00000000      -0.00017479       0.00001331       0.00000000       0.22268179
N        2.29224871      -0.07398059      -0.00000000       0.00000000      -0.00004823       0.00010022      -0.00000000      -0.11981559
N        3.02098870      -1.22512617       0.00000000       0.00000000      -0.00005101       0.00000609       0.00000000      -0.19010203
N        4.28283620      -0.98461935      -0.00000000       0.00000000      -0.00010380      -0.00002831      -0.00000000      -0.08443600
N        5.10736968      -1.96963108       0.00000000       0.00000000       0.00002607       0.00000990      -0.00000000      -0.19011122
N        6.40023594      -1.53986813      -0.00000000       0.00000000       0.00013300      -0.00008688       0.00000000      -0.11981874
N        7.38194626      -2.20495062      -0.00000000       0.00000000      -0.00010415       0.00015193      -0.00000000       0.22268367
N        8.47434632      -2.55924810      -0.00000000       0.00000000       0.00005595      -0.00007388       0.00000000      -0.37053935
