9
Properties=species:S:1:pos:R:3:forces:R:3:charge:R:1 formula=N9 topology=bicyclic-3-5-6 n_edges=11 n_rings=3 ff_energy=895.7047 mace_energy_eV=-13415.38868 delta_E_eV_atom=-0.23606454573814517 sg=P1 energy=-706.0730979350823 free_energy=-706.0730979350823 dipole="0.1643745261516187 -0.2385903780896524 0.002972495766035715" pbc="F F F"
N       13.58496668      15.80750571      13.93670193      -0.00001980       0.00001370       0.00014600      -0.11850160
N       15.22354416      15.40313292      15.35735691       0.00008398       0.00026368       0.00022627       0.14050966
N       14.50032999      14.89052202      14.24334898      -0.00007666       0.00016700      -0.00003618       0.14051973
N       15.56127094      13.16786378      15.25699843       0.00005024      -0.00021250      -0.00008957      -0.01500540
N       16.12792257      14.46560264      15.63819535       0.00019744      -0.00005477       0.00012227      -0.00469545
N       15.05766002      13.70699040      13.98961331      -0.00003080      -0.00015793      -0.00024550      -0.00468785
N       13.75463285      16.75349007      14.77991635      -0.00004427       0.00002282      -0.00003003      -0.00456979
N       16.46746792      13.78126510      14.38642141       0.00004837      -0.00021647       0.00005821      -0.01500457
N       14.68894977      16.58999183      15.63725779      -0.00020848       0.00017447      -0.00015149      -0.11856474
