9
Properties=species:S:1:pos:R:3:forces:R:3:charge:R:1 formula=N9 topology=bicyclic-3-3 n_edges=10 n_rings=2 ff_energy=500.0798 mace_energy_eV=-13410.283833 delta_E_eV_atom=0.33114072741909695 sg=P1 energy=-709.3526377545505 free_energy=-709.3526377545505 dipole="0.021725183206386764 0.07773201232388278 -0.028676491227883294" pbc="F F F"
N       14.47489705      16.08097250      13.31286463       0.00000836      -0.00024658       0.00013495      -0.04388722
N       16.15743102      16.15611069      14.78781802       0.00003304       0.00004405      -0.00007465      -0.04385998
N       13.75537359      15.33627567      12.53541360       0.00009077       0.00019848       0.00010526      -0.04226448
N       13.57702877      13.18053195      11.72855299       0.00002262       0.00018464      -0.00008081      -0.18213894
N       13.77860972      14.17740113      12.21573452      -0.00000358      -0.00026284       0.00005724       0.27925867
N       15.87585924      14.83062749      17.93306796       0.00004039       0.00010905      -0.00004445      -0.18213085
N       16.07562749      15.27185000      16.91466509       0.00001460      -0.00000454       0.00000844       0.27925414
N       15.16651929      15.58241256      14.24836748      -0.00019484       0.00009275      -0.00026447      -0.02197283
N       16.57430921      15.81649572      15.96576278      -0.00001138      -0.00011501       0.00015849      -0.04225850
