4
Properties=species:S:1:pos:R:3:forces:R:3:charge:R:1 formula=N4 topology=ring-3-subst integrity=OK energy_eV=-5958.570323 delta_E_eV_atom=0.8469 sg=P1 energy=-311.35668218707775 free_energy=-311.35668218707775 dipole="0.03015032458104791 0.1392322706384975 -0.1650606609037122" pbc="F F F"
N        0.30244997       0.08721071      -1.06223423       0.00000519      -0.00028741       0.00001272      -0.05777021
N       -0.05242654       1.06371235      -0.30467161      -0.00012751       0.00046313       0.00012126      -0.05764359
N       -0.04561481      -0.20968967       0.24921879       0.00017921      -0.00030313      -0.00003209       0.37766733
N       -0.20440863      -0.94123338       1.11768705      -0.00005690       0.00012741      -0.00010189      -0.26225352
