7
Properties=species:S:1:pos:R:3:forces:R:3:charge:R:1 formula=N7 topology=ring-4-substituted n_edges=7 n_rings=1 ff_energy=101.0231 mace_energy_eV=-10432.450326 delta_E_eV_atom=0.012631118783701822 sg=P1 energy=-551.6128804837244 free_energy=-551.6128804837244 dipole="-0.08506754808195373 -0.004422134159671625 -0.08056694564558668" pbc="F F F"
N       12.03366261      13.66313450      15.10748112       0.00003520       0.00014420      -0.00011721      -0.18024462
N       13.42872933      15.21828262      14.11141726       0.00004571       0.00007451       0.00000334      -0.01374455
N       12.80833781      14.40447777      14.74549907      -0.00011431      -0.00025831       0.00016543       0.26756492
N       16.28690311      16.11460841      15.65061767       0.00005672      -0.00003282       0.00007554       0.28414457
N       14.52734171      15.85317467      14.24909818       0.00008208       0.00006441       0.00000957      -0.09010121
N       15.24043665      15.62119788      15.34549294      -0.00008271      -0.00006734      -0.00006942      -0.07756078
N       17.24307076      16.40697240      16.17717363      -0.00002269       0.00007534      -0.00006726      -0.19005834
