4
Properties=species:S:1:pos:R:3:forces:R:3:charge:R:1 formula=N4 topology=ring-4 integrity=OK energy_eV=-5954.183333 delta_E_eV_atom=1.9436 sg=P1 energy=-311.15971919362397 free_energy=-311.15971919362397 dipole="0.007685658898930047 0.0067599018969653575 0.005543614276338443" pbc="F F F"
N        0.58659134       0.00693590      -0.54403737       0.00015350      -0.00006266      -0.00010517       0.10405968
N        0.33043998      -0.91351265       0.37683778       0.00001333      -0.00005751       0.00009668      -0.10406295
N       -0.41173813       0.14668306       0.67012750      -0.00002574      -0.00012122       0.00018544       0.10406191
N       -0.50529318       0.75989369      -0.50292790      -0.00014110       0.00024139      -0.00017695      -0.10405864
