9
Properties=species:S:1:pos:R:3:forces:R:3:charge:R:1 formula=N9 topology=bicyclic-3-4 n_edges=10 n_rings=2 ff_energy=295.3743 mace_energy_eV=-13407.854428 delta_E_eV_atom=0.6010745999185474 sg=P1 energy=-708.3488083465577 free_energy=-708.3488083465577 dipole="-0.6350125733495823 0.24616005875877853 -0.050316014268431644" pbc="F F F"
N       15.83054449      13.53619898      15.03657727      -0.00009007       0.00005731      -0.00004326      -0.31348095
N       13.29780902      14.52338832      14.79630779      -0.00003948       0.00004797      -0.00005907      -0.06286258
N       14.41625748      15.21050836      14.98670230      -0.00004821      -0.00028555       0.00019847      -0.00342486
N       16.94077222      13.80298843      15.22537875       0.00014491       0.00004242       0.00009198       0.32421929
N       18.04235467      14.04627429      15.41095639      -0.00008832      -0.00004242      -0.00007378      -0.25048090
N       12.47336212      12.58029062      15.70700570       0.00000079       0.00003090      -0.00002904      -0.15423119
N       12.99977137      13.50458015      15.34988507       0.00003867      -0.00003523       0.00004923       0.32449972
N       14.79543125      16.15526802      14.35672423       0.00018908       0.00027875      -0.00016697       0.29102525
N       15.38219744      17.03934640      13.97336898      -0.00010736      -0.00009414       0.00003243      -0.15526378
